Ti2 O4
1.0
   4.5998373238807098    0.0000000000000000    0.0000000000000003
  -0.0000000000000003    4.5998373238807098    0.0000000000000003
   0.0000000000000000    0.0000000000000000    2.9592135600011331
Ti O
2 4
direct
   0.5000000000000000    0.5000000000000000    0.0000000000000000 Ti
   0.0000000000000000    0.0000000000000000    0.5000000000000000 Ti
   0.6956786850000000    0.6956786850000000    0.5000000000000000 O
   0.1956786849999999    0.8043213150000000    0.0000000000000000 O
   0.8043213150000000    0.1956786849999999    0.0000000000000000 O
   0.3043213150000000    0.3043213150000000    0.5000000000000000 O
