Ti30 O60
1.0
  10.2696166146794869    0.0000000000000000    0.0000000000000000
  -0.0676331808569384   10.5687380440007672    0.0000000000000000
  -0.1847066347947803   -0.0895005182337223   10.5784028309565077
Ti O
30 60
direct
   0.7973280000000000    0.3663960000000000    0.3449179999999999 Ti
   0.1769840000000000    0.5591790000000000    0.0710450000000000 Ti
   0.4702750000000000    0.4183620000000000    0.7764079999999998 Ti
   0.2431690000000000    0.1785370000000000    0.6827609999999998 Ti
   0.6531810000000000    0.1063880000000000    0.3736689999999999 Ti
   0.5535209999999999    0.2109620000000000    0.0186320000000000 Ti
   0.9723930000000001    0.4026440000000000    0.5914270000000000 Ti
   0.3066120000000001    0.8965260000000000    0.5222110000000000 Ti
   0.2262360000000000    0.5766160000000000    0.5813350000000000 Ti
   0.3589580000000000    0.6513240000000000    0.3498749999999999 Ti
   0.7708760000000000    0.9384420000000000    0.0870350000000000 Ti
   0.0371660000000000    0.5766510000000000    0.3177329999999999 Ti
   0.8530150000000000    0.8364850000000000    0.4242079999999998 Ti
   0.6981500000000000    0.6753410000000000    0.8712219999999998 Ti
   0.0655909999999999    0.0228350000000000    0.2570059999999999 Ti
   0.5677250000000000    0.0317910000000000    0.7139880000000000 Ti
   0.1780159999999999    0.3284300000000000    0.3267549999999999 Ti
   0.7033070000000000    0.6575790000000000    0.2589269999999999 Ti
   0.4548489999999999    0.7009590000000000    0.0890340000000000 Ti
   0.4830529999999999    0.3507630000000000    0.4911779999999998 Ti
   0.3210420000000000    0.0372220000000000    0.9462049999999997 Ti
   0.9877549999999999    0.5471400000000000    0.8502549999999998 Ti
   0.1074120000000000    0.8499070000000000    0.9822229999999997 Ti
   0.6887900000000000    0.4533660000000000    0.0352310000000000 Ti
   0.8695690000000000    0.8781580000000000    0.7613289999999999 Ti
   0.3641590000000000    0.9910000000000000    0.2168459999999999 Ti
   0.8059620000000001    0.2367510000000000    0.7980679999999998 Ti
   0.6835750000000000    0.5718930000000000    0.5555050000000000 Ti
   0.0038490000000000    0.0724860000000000    0.5811320000000000 Ti
   0.3434210000000000    0.7106850000000000    0.8213959999999998 Ti
   0.7652800000000000    0.8385930000000000    0.9425559999999997 O
   0.9017140000000000    0.3801760000000000    0.7597989999999999 O
   0.4735510000000001    0.0305420000000000    0.8618219999999998 O
   0.2096900000000000    0.4569610000000000    0.2166839999999999 O
   0.6946300000000001    0.9196569999999999    0.7187899999999999 O
   0.5161960000000000    0.6338620000000000    0.2564459999999999 O
   0.3895790000000000    0.1244610000000000    0.0889660000000000 O
   0.7491559999999999    0.9791140000000000    0.4372359999999998 O
   0.1801740000000000    0.0226360000000000    0.6070060000000000 O
   0.5602320000000001    0.3528330000000000    0.1120109999999999 O
   0.5009090000000000    0.7514760000000000    0.8728299999999998 O
   0.6860949999999999    0.7074140000000000    0.4406539999999998 O
   0.4117429999999999    0.7951750000000000    0.4266989999999998 O
   0.9694190000000000    0.4089770000000000    0.2967179999999999 O
   0.3703760000000000    0.2961820000000000    0.6437680000000000 O
   0.9313790000000000    0.0061780000000000    0.1335249999999999 O
   0.1755910000000000    0.6624920000000000    0.4220909999999998 O
   0.0031930000000000    0.9290050000000000    0.8785419999999998 O
   0.0866310000000000    0.4514450000000000    0.9593519999999998 O
   0.2625430000000000    0.8683880000000000    0.8907629999999997 O
   0.6371680000000000    0.4423660000000000    0.4145339999999998 O
   0.7580300000000000    0.4946120000000000    0.1992609999999999 O
   0.8251370000000000    0.5491600000000000    0.9365419999999998 O
   0.8971510000000000    0.1008130000000000    0.7366380000000000 O
   0.2932460000000000    0.6870170000000000    0.1874649999999999 O
   0.9351110000000000    0.8923610000000000    0.5897860000000000 O
   0.4608800000000000    0.2852790000000000    0.8883129999999998 O
   0.8872679999999999    0.6589800000000000    0.3462179999999999 O
   0.7472250000000000    0.2187130000000000    0.2753219999999999 O
   0.4324970000000000    0.9923310000000000    0.5971560000000000 O
   0.0023910000000000    0.0992830000000000    0.4185919999999998 O
   0.1898100000000000    0.9632740000000000    0.1056859999999999 O
   0.9913010000000000    0.8763350000000000    0.3353649999999999 O
   0.6541330000000001    0.6573570000000000    0.7035269999999999 O
   0.8842970000000000    0.7102820000000000    0.7779199999999997 O
   0.0845560000000000    0.5393280000000000    0.6929780000000000 O
   0.2466390000000000    0.9689430000000000    0.3534289999999999 O
   0.1378009999999999    0.1860030000000000    0.2389629999999999 O
   0.7430840000000001    0.8261540000000001    0.2220589999999999 O
   0.2256340000000000    0.1444830000000000    0.8511619999999998 O
   0.3431630000000000    0.2972770000000000    0.3855379999999998 O
   0.6351510000000000    0.6472980000000000    0.0630070000000000 O
   0.0890850000000000    0.2433180000000000    0.6364530000000000 O
   0.3786829999999999    0.5300340000000000    0.4845599999999998 O
   0.1218860000000000    0.4376950000000000    0.4791909999999998 O
   0.4427420000000000    0.8708939999999999    0.1127879999999999 O
   0.0969280000000000    0.6830510000000000    0.9299839999999998 O
   0.6601150000000000    0.0663530000000000    0.0622510000000000 O
   0.2722830000000001    0.7550420000000000    0.6418920000000000 O
   0.5750449999999999    0.2024480000000000    0.4912979999999998 O
   0.5859790000000000    0.5043010000000000    0.8861429999999998 O
   0.3441540000000000    0.5458310000000000    0.7374230000000001 O
   0.8545260000000000    0.5360940000000000    0.5600390000000000 O
   0.6508470000000000    0.1852310000000000    0.7284669999999999 O
   0.5093810000000000    0.0379610000000000    0.3000229999999999 O
   0.3345170000000000    0.6101180000000000    0.9769329999999998 O
   0.0474759999999999    0.6420200000000000    0.1584179999999999 O
   0.7358970000000000    0.2884790000000000    0.9554509999999998 O
   0.5767740000000000    0.4311350000000000    0.6382780000000000 O
   0.8614200000000001    0.2986050000000000    0.5021780000000000 O
