Ti4 O8
1.0
   0.0000000000000000    6.1678889999999997    0.0000000000000000
   3.9073009999999999    0.0000000000000000    0.0000000000000000
   0.0000000000000000   -0.5509169999999979  -11.3950980000000008
Ti O
4 8
direct
   0.0393150000000000    0.2500000000000000    0.7450100000000000 Ti
   0.4528629999999998    0.7500000000000000    0.0995880000000000 Ti
   0.5471370000000002    0.2500000000000000    0.9004120000000000 Ti
   0.9606850000000000    0.7500000000000000    0.2549900000000000 Ti
   0.4643359999999999    0.2500000000000000    0.0643700000000000 O
   0.9518859999999998    0.2500000000000000    0.6075130000000000 O
   0.5356640000000001    0.7500000000000000    0.9356300000000000 O
   0.0481140000000002    0.7500000000000000    0.3924870000000000 O
   0.3380019999999999    0.2500000000000000    0.7836389999999999 O
   0.1710649999999999    0.7500000000000000    0.1453689999999999 O
   0.6619980000000001    0.7500000000000000    0.2163610000000001 O
   0.8289350000000001    0.2500000000000000    0.8546310000000001 O
