Ti4 O8
1.0
   0.0000000000000000    5.4120679999999997    0.0000000000000000
   5.4133100000000001    0.0000000000000000    0.0000000000000000
   0.0000000000000000   -2.6335310000000001   -4.7966369999999987
Ti O
4 8
direct
   0.5000000000000000    0.6341100000000000    0.7500000000000000 Ti
   0.5000000000000000    0.3658900000000000    0.2500000000000000 Ti
   0.0000000000000000    0.1341100000000000    0.7500000000000000 Ti
   0.0000000000000000    0.8658900000000000    0.2500000000000000 Ti
   0.7900119999999999    0.1212329999999999    0.3328510000000000 O
   0.2099880000000001    0.8787670000000001    0.6671490000000000 O
   0.2099880000000001    0.1212329999999999    0.1671490000000000 O
   0.7900119999999999    0.8787670000000001    0.8328510000000000 O
   0.2900119999999999    0.6212329999999999    0.3328510000000000 O
   0.7099880000000001    0.3787670000000001    0.6671490000000000 O
   0.7099880000000001    0.6212329999999999    0.1671490000000000 O
   0.2900119999999999    0.3787670000000001    0.8328510000000000 O
