Ti4 O8
1.0
   0.0000000000000000    4.8126997814293100    0.0000000000000000
   4.8718844600000004    0.0000000000000000    0.0000000000000000
   0.0000000000000000   -0.8628854486616573   -4.9665942754540309
Ti O
4 8
direct
   0.7225647399999999    0.5528083600000001    0.2868517300000000 Ti
   0.2774352600000001    0.0528083600000001    0.2131482700000000 Ti
   0.2774352600000001    0.4471916399999999    0.7131482700000000 Ti
   0.7225647399999999    0.9471916399999999    0.7868517300000000 Ti
   0.5546390100000000    0.2576317400000000    0.0332281400000000 O
   0.4453609900000000    0.7576317399999999    0.4667718600000000 O
   0.4453609900000000    0.7423682600000000    0.9667718600000000 O
   0.5546390100000000    0.2423682600000000    0.5332281399999999 O
   0.9361617799999999    0.6769655200000001    0.6484432600000000 O
   0.0638382200000001    0.1769655200000001    0.8515567400000000 O
   0.0638382200000001    0.3230344799999999    0.3515567400000000 O
   0.9361617799999999    0.8230344799999999    0.1484432600000000 O
