Ti2 O4
1.0
   3.1327019999999997    0.0000000000000000    0.0000000000000002
   0.0000000000000009    5.7446849999999996    0.0000000000000004
   0.0000000000000000    0.0000000000000000   10.5171689999999991
Ti O
2 4
direct
   0.0000000000000000    0.5000000000000000    0.0021210000000000 Ti
   0.5000000000000000    0.0000000000000000    0.9398500000000002 Ti
   0.5000000000000000    0.7305429999999999    0.0384140000000000 O
   0.0000000000000000    0.0000000000000000    0.8531270000000002 O
   0.0000000000000000    0.5000000000000000    0.8473240000000002 O
   0.5000000000000000    0.2694570000000001    0.0384140000000000 O
