Ti8 O16
1.0
   3.0168059999999999    0.0000000000000000    0.0000000000000002
   0.0000000000000015    9.5964460000000003    0.0000000000000006
   0.0000000000000000    0.0000000000000000   11.0478210000000008
Ti O
8 16
direct
   0.7500000000000000    0.0175100000000001    0.3683320000000001 Ti
   0.2500000000000000    0.2361300000000000    0.1554430000000000 Ti
   0.7500000000000000    0.2638700000000000    0.6554430000000000 Ti
   0.2500000000000000    0.4824899999999999    0.8683320000000001 Ti
   0.7500000000000000    0.5175100000000001    0.1316679999999999 Ti
   0.2500000000000000    0.7361300000000000    0.3445570000000000 Ti
   0.7500000000000000    0.7638700000000000    0.8445570000000000 Ti
   0.2500000000000000    0.9824899999999999    0.6316679999999999 Ti
   0.7500000000000000    0.0952660000000001    0.5443519999999999 O
   0.2500000000000000    0.1249730000000000    0.3110510000000000 O
   0.2500000000000000    0.1331959999999999    0.7312100000000000 O
   0.7500000000000000    0.1508820000000000    0.0941540000000001 O
   0.2500000000000000    0.3491180000000000    0.5941540000000001 O
   0.7500000000000000    0.3668040000000001    0.2312099999999999 O
   0.7500000000000000    0.3750270000000000    0.8110510000000000 O
   0.2500000000000000    0.4047339999999999    0.0443519999999999 O
   0.7500000000000000    0.5952660000000001    0.9556480000000001 O
   0.2500000000000000    0.6249730000000000    0.1889490000000000 O
   0.2500000000000000    0.6331959999999999    0.7687900000000000 O
   0.7500000000000000    0.6508820000000000    0.4058459999999999 O
   0.2500000000000000    0.8491180000000000    0.9058459999999999 O
   0.7500000000000000    0.8668040000000001    0.2687900000000000 O
   0.7500000000000000    0.8750270000000000    0.6889490000000000 O
   0.2500000000000000    0.9047339999999999    0.4556480000000001 O
