Ti4 O8
1.0
   3.1672259999999999    0.0000000000000000    0.0000000000000002
   0.0000000000000008    5.2539629999999997    0.0000000000000003
   0.0000000000000000    0.0000000000000000    6.2878480000000003
Ti O
4 8
direct
   0.2500000000000000    0.7514529999999999    0.3938299999999999 Ti
   0.2500000000000000    0.2514529999999999    0.1061700000000001 Ti
   0.7500000000000000    0.2485470000000001    0.6061700000000001 Ti
   0.7500000000000000    0.7485470000000001    0.8938299999999999 Ti
   0.2500000000000000    0.8628079999999999    0.0805500000000001 O
   0.2500000000000000    0.3628079999999998    0.4194499999999999 O
   0.7500000000000000    0.1371920000000001    0.9194499999999999 O
   0.7500000000000000    0.6371920000000001    0.5805500000000001 O
   0.7500000000000000    0.5156050000000000    0.1530890000000000 O
   0.7500000000000000    0.0156049999999999    0.3469110000000000 O
   0.2500000000000000    0.4843950000000000    0.8469110000000000 O
   0.2500000000000000    0.9843950000000000    0.6530890000000000 O
