Ti8 O16
1.0
   5.1491190800000002    0.0000000000000000    0.0000000000000003
   0.0000000000000009    5.4591221900000004    0.0000000000000003
   0.0000000000000000    0.0000000000000000    9.1942032999999999
Ti O
8 16
direct
   0.1379105100000000    0.4025823799999999    0.3710305100000001 Ti
   0.6379105100000000    0.5974176200000001    0.1289694899999999 Ti
   0.3620894900000000    0.9025823799999999    0.6289694899999999 Ti
   0.8620894900000000    0.0974176200000001    0.8710305100000001 Ti
   0.8620894900000000    0.5974176200000001    0.6289694899999999 Ti
   0.3620894900000000    0.4025823799999999    0.8710305100000001 Ti
   0.6379105100000000    0.0974176200000001    0.3710305100000001 Ti
   0.1379105100000000    0.9025823799999999    0.1289694899999999 Ti
   0.4647101199999999    0.3899939799999999    0.2697099600000000 O
   0.9647101199999999    0.6100060200000001    0.2302900400000000 O
   0.0352898800000001    0.8899939799999999    0.7302900400000000 O
   0.5352898800000001    0.1100060200000001    0.7697099600000000 O
   0.5352898800000001    0.6100060200000001    0.7302900400000000 O
   0.0352898800000001    0.3899939799999999    0.7697099600000000 O
   0.9647101199999999    0.1100060200000001    0.2697099600000000 O
   0.4647101199999999    0.8899939799999999    0.2302900400000000 O
   0.8166313299999999    0.8511885899999999    0.0104794700000002 O
   0.3166313299999999    0.1488114100000001    0.4895205299999998 O
   0.6833686700000001    0.3511885900000000    0.9895205299999998 O
   0.1833686700000001    0.6488114100000001    0.5104794700000002 O
   0.1833686700000001    0.1488114100000001    0.9895205299999998 O
   0.6833686700000001    0.8511885899999999    0.5104794700000002 O
   0.3166313299999999    0.6488114100000001    0.0104794700000002 O
   0.8166313299999999    0.3511885900000000    0.4895205299999998 O
