Ti8 O16
1.0
   2.9656110299999998    0.0000000000000000    0.0000000000000002
   0.0000000000000008    4.6815241500000004    0.0000000000000003
   0.0000000000000000    0.0000000000000000   18.7572993699999984
Ti O
8 16
direct
   0.2500000000000000    0.0477485700000000    0.5695448300000000 Ti
   0.7500000000000000    0.5462881300000000    0.6888339999999999 Ti
   0.2500000000000000    0.0462881300000000    0.8111660000000001 Ti
   0.7500000000000000    0.5477485700000000    0.9304551700000000 Ti
   0.2500000000000000    0.4522514300000000    0.0695448299999999 Ti
   0.7500000000000000    0.9537118700000000    0.1888339999999999 Ti
   0.2500000000000000    0.4537118700000000    0.3111660000000001 Ti
   0.7500000000000000    0.9522514300000000    0.4304551700000000 Ti
   0.7500000000000000    0.2092671699999999    0.5176151700000000 O
   0.2500000000000000    0.3419430700000001    0.6407695200000000 O
   0.7500000000000000    0.8326950300000000    0.6155088200000000 O
   0.7500000000000000    0.2245165800000000    0.7623138899999999 O
   0.2500000000000000    0.7245165800000000    0.7376861100000001 O
   0.2500000000000000    0.3326950300000000    0.8844911800000000 O
   0.7500000000000000    0.8419430700000001    0.8592304800000000 O
   0.2500000000000000    0.7092671699999999    0.9823848300000000 O
   0.7500000000000000    0.2907328300000001    0.0176151700000000 O
   0.2500000000000000    0.1580569299999999    0.1407695200000001 O
   0.7500000000000000    0.6673049700000000    0.1155088200000001 O
   0.7500000000000000    0.2754834200000000    0.2623138899999999 O
   0.2500000000000000    0.7754834200000000    0.2376861100000001 O
   0.2500000000000000    0.1673049700000000    0.3844911800000000 O
   0.7500000000000000    0.6580569299999999    0.3592304800000000 O
   0.2500000000000000    0.7907328300000001    0.4823848300000000 O
