Ti8 O16
1.0
   6.2715240000000003    0.0000000000000000    0.0000000000000004
   0.0000000000000019   11.5396719999999995    0.0000000000000007
   0.0000000000000000    0.0000000000000000   10.4635350000000003
Ti O
8 16
direct
   0.0000000000000000    0.2457970000000000    0.9995420000000000 Ti
   0.2537170000000000    0.0000000000000000    0.9426760000000000 Ti
   0.5000000000000000    0.2542030000000001    0.9995420000000000 Ti
   0.7462830000000000    0.0000000000000000    0.9426760000000000 Ti
   0.5000000000000000    0.7457969999999999    0.9995420000000000 Ti
   0.7537170000000000    0.5000000000000000    0.9426760000000000 Ti
   0.0000000000000000    0.7542030000000001    0.9995420000000000 Ti
   0.2462830000000000    0.5000000000000000    0.9426760000000000 Ti
   0.7452900000000000    0.1357959999999999    0.0382370000000000 O
   0.0000000000000000    0.0000000000000000    0.8605440000000000 O
   0.0000000000000000    0.2436919999999999    0.8439630000000000 O
   0.7547100000000000    0.3642040000000001    0.0382370000000000 O
   0.5000000000000000    0.2563080000000001    0.8439630000000000 O
   0.2452900000000000    0.3642040000000001    0.0382370000000000 O
   0.2547100000000000    0.1357959999999999    0.0382370000000000 O
   0.5000000000000000    0.0000000000000000    0.8526480000000000 O
   0.2452900000000000    0.6357959999999999    0.0382370000000000 O
   0.5000000000000000    0.5000000000000000    0.8605440000000000 O
   0.5000000000000000    0.7436919999999999    0.8439630000000000 O
   0.2547100000000000    0.8642040000000001    0.0382370000000000 O
   0.0000000000000000    0.7563080000000001    0.8439630000000000 O
   0.7452900000000000    0.8642040000000001    0.0382370000000000 O
   0.7547100000000000    0.6357959999999999    0.0382370000000000 O
   0.0000000000000000    0.5000000000000000    0.8526480000000000 O
