Ti8 O16
1.0
   2.9684459300000001    0.0000000000000000    0.0000000000000002
   0.0000000000000014    8.8828835300000009    0.0000000000000005
   0.0000000000000000    0.0000000000000000   10.6647746399999992
Ti O
8 16
direct
   0.7500000000000000    0.0505073800000000    0.8819564800000000 Ti
   0.7500000000000000    0.0889884800000000    0.3995267800000000 Ti
   0.2500000000000000    0.4110115200000000    0.8995267800000000 Ti
   0.2500000000000000    0.4494926200000000    0.3819564799999999 Ti
   0.7500000000000000    0.5505073800000000    0.6180435200000000 Ti
   0.7500000000000000    0.5889884799999999    0.1004732200000000 Ti
   0.2500000000000000    0.9110115200000001    0.6004732200000000 Ti
   0.2500000000000000    0.9494926200000000    0.1180435200000000 Ti
   0.2500000000000000    0.0274185100000000    0.2849009200000000 O
   0.7500000000000000    0.0755278400000000    0.0719018600000000 O
   0.2500000000000000    0.1131166000000000    0.5131073700000000 O
   0.2500000000000000    0.2004973600000000    0.8596430600000000 O
   0.7500000000000000    0.2995026400000000    0.3596430600000000 O
   0.7500000000000000    0.3868834000000000    0.0131073700000000 O
   0.2500000000000000    0.4244721600000000    0.5719018600000000 O
   0.7500000000000000    0.4725814900000000    0.7849009200000000 O
   0.2500000000000000    0.5274185100000000    0.2150990800000000 O
   0.7500000000000000    0.5755278400000000    0.4280981400000000 O
   0.2500000000000000    0.6131166000000000    0.9868926300000000 O
   0.2500000000000000    0.7004973600000000    0.6403569400000000 O
   0.7500000000000000    0.7995026400000000    0.1403569400000000 O
   0.7500000000000000    0.8868834000000000    0.4868926300000000 O
   0.2500000000000000    0.9244721600000000    0.9280981400000000 O
   0.7500000000000000    0.9725814900000000    0.7150990800000000 O
