Ti3 O6
1.0
   1.4973312014718752   -2.5934537167074385    0.0000000000000000
   1.4973312014718752    2.5934537167074385    0.0000000000000000
   0.0000000000000000    0.0000000000000000   20.9446331845870191
Ti O
3 6
direct
   0.0000000000000000    0.0000000000000000    0.0000000000000000 Ti
   0.6666666666666666    0.3333333333333333    0.3333333333333333 Ti
   0.3333333333333333    0.6666666666666666    0.6666666666666666 Ti
   0.3333333333333333    0.6666666666666666    0.2871336666666666 O
   0.3333333333333333    0.6666666666666667    0.0461996666666667 O
   0.0000000000000000    0.0000000000000000    0.6204669999999999 O
   0.0000000000000000    0.0000000000000000    0.3795330000000001 O
   0.6666666666666666    0.3333333333333333    0.9538003333333331 O
   0.6666666666666666    0.3333333333333335    0.7128663333333334 O
