Ti32 O64
1.0
   0.0000000000000000   10.1977639999999994    0.0000000000000000
   6.0613599999999996    0.0000000000000000    0.0000000000000000
   0.0000000000000000   -3.8067830000000007  -19.3905190000000012
Ti O
32 64
direct
   0.3839805000000001    0.2334205000000000    0.8740920000000000 Ti
   0.2461860000000000    0.5000000000000000    0.7376370000000000 Ti
   0.3839805000000001    0.7665795000000000    0.8740920000000000 Ti
   0.1522519999999999    0.5000000000000000    0.4659480000000000 Ti
   0.1229785000000001    0.7507115000000000    0.6220610000000000 Ti
   0.0988240000000000    0.0000000000000000    0.7786360000000000 Ti
   0.4055380000000000    0.5000000000000000    0.2226509999999999 Ti
   0.6229785000000001    0.7492885000000000    0.6220610000000000 Ti
   0.3735425000000000    0.7522384999999999    0.3766550000000000 Ti
   0.3462540000000001    0.0000000000000000    0.5341020000000000 Ti
   0.8735425000000001    0.7477615000000001    0.3766550000000000 Ti
   0.1350855000000000    0.7636795000000000    0.1303719999999999 Ti
   0.1350855000000000    0.2363205000000000    0.1303719999999999 Ti
   0.0947570000000000    0.5000000000000000    0.2832220000000000 Ti
   0.5029040000000000    0.0000000000000000    0.9931000000000000 Ti
   0.3523799999999999    0.5000000000000000    0.0293920000000000 Ti
   0.8839805000000001    0.7334205000000000    0.8740920000000000 Ti
   0.7461860000000000    0.0000000000000000    0.7376370000000000 Ti
   0.8839805000000001    0.2665795000000000    0.8740920000000000 Ti
   0.6522519999999998    0.0000000000000000    0.4659480000000000 Ti
   0.6229785000000001    0.2507115000000000    0.6220610000000000 Ti
   0.5988240000000000    0.5000000000000000    0.7786360000000000 Ti
   0.9055380000000000    0.0000000000000000    0.2226509999999999 Ti
   0.1229785000000001    0.2492885000000000    0.6220610000000000 Ti
   0.8735425000000001    0.2522384999999999    0.3766550000000000 Ti
   0.8462540000000001    0.5000000000000000    0.5341020000000000 Ti
   0.3735425000000001    0.2477615000000001    0.3766550000000000 Ti
   0.6350855000000000    0.2636795000000000    0.1303719999999999 Ti
   0.6350855000000000    0.7363205000000002    0.1303719999999999 Ti
   0.5947570000000000    0.0000000000000000    0.2832220000000000 Ti
   0.0029040000000000    0.5000000000000000    0.9931000000000000 Ti
   0.8523799999999999    0.0000000000000000    0.0293920000000000 Ti
   0.5411380000000000    0.7749950000000000    0.9378530000000000 O
   0.4255989999999999    0.0000000000000000    0.8228880000000000 O
   0.5411380000000000    0.2250050000000000    0.9378530000000000 O
   0.3267460000000000    0.0000000000000000    0.9326610000000000 O
   0.4280510000000000    0.5000000000000000    0.8148040000000000 O
   0.2861630000000001    0.2755940000000000    0.6849220000000000 O
   0.6949650000000001    0.7432110000000001    0.8089980000000000 O
   0.1728750000000001    0.5000000000000000    0.5628630000000000 O
   0.2861630000000001    0.7244060000000000    0.6849220000000000 O
   0.8244730000000000    0.0000000000000000    0.9364020000000000 O
   0.5750750000000000    0.0000000000000000    0.6794710000000000 O
   0.1949650000000001    0.7567889999999999    0.8089980000000000 O
   0.0507814999999999    0.7302184999999999    0.4331590000000001 O
   0.1861210000000000    0.0000000000000000    0.5715260000000000 O
   0.9431425000000000    0.7297625000000000    0.5674800000000000 O
   0.4302279999999999    0.5000000000000000    0.3196300000000001 O
   0.5507814999999998    0.7697815000000001    0.4331590000000001 O
   0.0718560000000001    0.0000000000000000    0.6826449999999999 O
   0.3165939999999998    0.5000000000000000    0.4303610000000000 O
   0.4431425000000000    0.7702375000000000    0.5674800000000000 O
   0.9308080000000000    0.5000000000000000    0.3202550000000000 O
   0.3078540000000001    0.7273060000000000    0.1847400000000000 O
   0.1987629999999999    0.7276480000000000    0.3158369999999999 O
   0.6866740000000000    0.5000000000000000    0.0836490000000000 O
   0.8078540000000001    0.7726940000000000    0.1847400000000000 O
   0.3207190000000000    0.0000000000000000    0.4328390000000000 O
   0.0621490000000000    0.0000000000000000    0.1821990000000000 O
   0.1987629999999999    0.2723520000000000    0.3158369999999999 O
   0.1786449999999999    0.5000000000000000    0.0657410000000000 O
   0.9540590000000000    0.2438080000000000    0.0599160000000000 O
   0.0761229999999999    0.5000000000000000    0.1855880000000000 O
   0.9540590000000000    0.7561920000000000    0.0599160000000000 O
   0.0411380000000000    0.2749950000000000    0.9378530000000000 O
   0.9255990000000001    0.5000000000000000    0.8228880000000000 O
   0.0411380000000000    0.7250049999999999    0.9378530000000000 O
   0.8267460000000000    0.5000000000000000    0.9326610000000000 O
   0.9280510000000000    0.0000000000000000    0.8148040000000000 O
   0.7861630000000002    0.7755939999999999    0.6849220000000000 O
   0.1949650000000001    0.2432110000000001    0.8089980000000000 O
   0.6728750000000001    0.0000000000000000    0.5628630000000000 O
   0.7861630000000002    0.2244060000000000    0.6849220000000000 O
   0.3244730000000000    0.5000000000000000    0.9364020000000000 O
   0.0750750000000000    0.5000000000000000    0.6794710000000000 O
   0.6949650000000001    0.2567889999999999    0.8089980000000000 O
   0.5507814999999998    0.2302184999999999    0.4331590000000001 O
   0.6861210000000000    0.5000000000000000    0.5715260000000000 O
   0.4431425000000000    0.2297625000000000    0.5674800000000000 O
   0.9302280000000001    0.0000000000000000    0.3196300000000001 O
   0.0507814999999998    0.2697815000000001    0.4331590000000001 O
   0.5718560000000001    0.5000000000000000    0.6826449999999999 O
   0.8165939999999998    0.0000000000000000    0.4303610000000000 O
   0.9431425000000000    0.2702375000000000    0.5674800000000000 O
   0.4308080000000000    0.0000000000000000    0.3202550000000000 O
   0.8078540000000001    0.2273060000000000    0.1847400000000000 O
   0.6987630000000000    0.2276480000000000    0.3158369999999999 O
   0.1866740000000000    0.0000000000000000    0.0836490000000000 O
   0.3078540000000001    0.2726940000000000    0.1847400000000000 O
   0.8207190000000000    0.5000000000000000    0.4328390000000000 O
   0.5621490000000000    0.5000000000000000    0.1821990000000000 O
   0.6987630000000000    0.7723520000000001    0.3158369999999999 O
   0.6786449999999999    0.0000000000000000    0.0657410000000000 O
   0.4540590000000000    0.7438080000000000    0.0599160000000000 O
   0.5761229999999999    0.0000000000000000    0.1855880000000000 O
   0.4540590000000000    0.2561920000000000    0.0599160000000000 O
