Ti3 O6
1.0
   1.4985500588765786   -2.5955648396595663    0.0000000000000000
   1.4985500588765786    2.5955648396595663    0.0000000000000000
   0.0000000000000000    0.0000000000000000   14.6108798824956807
Ti O
3 6
direct
   0.0000000000000000    0.0000000000000000    0.0000000000000000 Ti
   0.6666666666666666    0.3333333333333333    0.3333333333333333 Ti
   0.3333333333333333    0.6666666666666666    0.6666666666666666 Ti
   0.6666666666666666    0.3333333333333333    0.0661873333333333 O
   0.0000000000000000    0.0000000000000000    0.2671460000000000 O
   0.3333333333333333    0.6666666666666666    0.3995206666666666 O
   0.6666666666666666    0.3333333333333333    0.6004793333333334 O
   0.0000000000000000    0.0000000000000000    0.7328540000000000 O
   0.3333333333333333    0.6666666666666666    0.9338126666666666 O
