Ti8 O16
1.0
  10.1948888100201511    0.0000000000000000    0.0000000000000006
   0.0000000000000016   10.1948888100201511    0.0000000000000006
   0.0000000000000000    0.0000000000000000    2.9674455399999999
Ti O
8 16
direct
   0.3555470800000000    0.1725869100000000    0.0000000000000000 Ti
   0.3274130900000000    0.8555470800000000    0.5000000000000000 Ti
   0.6725869099999999    0.1444529200000000    0.5000000000000000 Ti
   0.6444529200000000    0.8274130900000001    0.0000000000000000 Ti
   0.8555470800000000    0.6725869099999999    0.5000000000000000 Ti
   0.8274130900000001    0.3555470800000000    0.0000000000000000 Ti
   0.1725869099999999    0.6444529200000000    0.0000000000000000 Ti
   0.1444529200000000    0.3274130900000001    0.5000000000000000 Ti
   0.6637375299999999    0.9589847299999998    0.5000000000000000 O
   0.5410152700000002    0.1637375299999999    0.0000000000000000 O
   0.4589847299999998    0.8362624700000001    0.0000000000000000 O
   0.3362624700000001    0.0410152700000002    0.5000000000000000 O
   0.3433931099999999    0.2909642099999999    0.5000000000000000 O
   0.2090357900000001    0.8433931099999998    0.0000000000000000 O
   0.6566068900000002    0.7090357900000002    0.5000000000000000 O
   0.7909642099999998    0.1566068900000001    0.0000000000000000 O
   0.1637375299999999    0.4589847299999998    0.0000000000000000 O
   0.0410152700000002    0.6637375299999999    0.5000000000000000 O
   0.9589847299999998    0.3362624700000001    0.5000000000000000 O
   0.8362624700000001    0.5410152700000002    0.0000000000000000 O
   0.8433931099999998    0.7909642099999998    0.0000000000000000 O
   0.7090357900000002    0.3433931099999998    0.5000000000000000 O
   0.1566068900000002    0.2090357900000002    0.0000000000000000 O
   0.2909642099999998    0.6566068900000002    0.5000000000000000 O
