Ti8 O16
1.0
   2.9735337908476138   -5.1503116037709544    0.0000000000000000
   2.9735337908476138    5.1503116037709544    0.0000000000000000
   0.0000000000000000    0.0000000000000000    9.0683260000000008
Ti O
8 16
direct
   0.8319890000000000    0.6639780000000000    0.7111759999999999 Ti
   0.8319890000000000    0.1680110000000000    0.7111759999999999 Ti
   0.1680110000000000    0.8319890000000000    0.2111760000000000 Ti
   0.1680110000000000    0.3360220000000000    0.2111760000000000 Ti
   0.6666666666666666    0.3333333333333333    0.9897199999999999 Ti
   0.3360220000000000    0.1680110000000000    0.7111759999999999 Ti
   0.3333333333333333    0.6666666666666666    0.4897199999999999 Ti
   0.6639780000000000    0.8319890000000000    0.2111760000000000 Ti
   0.8289580000000000    0.6579159999999999    0.1026910000000001 O
   0.5238240000000001    0.4761759999999999    0.8382309999999999 O
   0.6666666666666666    0.3333333333333333    0.5988709999999999 O
   0.0000000000000000    0.0000000000000000    0.8129649999999999 O
   0.0000000000000000    0.0000000000000000    0.3129649999999999 O
   0.3420840000000001    0.1710420000000000    0.1026910000000001 O
   0.9523519999999999    0.4761759999999999    0.8382309999999999 O
   0.5238240000000001    0.0476480000000001    0.8382309999999999 O
   0.1710420000000000    0.8289580000000000    0.6026910000000001 O
   0.8289580000000000    0.1710420000000000    0.1026910000000001 O
   0.4761759999999999    0.9523519999999999    0.3382309999999999 O
   0.0476480000000001    0.5238240000000001    0.3382309999999999 O
   0.3333333333333333    0.6666666666666666    0.0988709999999999 O
   0.6579159999999999    0.8289580000000000    0.6026910000000001 O
   0.4761759999999999    0.5238240000000001    0.3382309999999999 O
   0.1710420000000000    0.3420840000000001    0.6026910000000001 O
