Ti8 O16
1.0
   4.8438319999999999    0.0000000000000000    0.0000000000000003
  -0.0000000000000003    4.9958559999999999    0.0000000000000003
   0.0000000000000000    0.0000000000000000    9.4424100000000006
Ti O
8 16
direct
   0.7499560000000000    0.9581520000000000    0.6150000000000000 Ti
   0.2500440000000000    0.5418480000000000    0.1150000000000000 Ti
   0.7500440000000000    0.4581520000000001    0.3850000000000000 Ti
   0.2499560000000001    0.0418480000000000    0.8850000000000000 Ti
   0.2500440000000000    0.0418480000000000    0.3850000000000000 Ti
   0.7499560000000000    0.4581520000000001    0.8850000000000000 Ti
   0.2499560000000001    0.5418480000000000    0.6150000000000000 Ti
   0.7500440000000000    0.9581520000000000    0.1150000000000000 Ti
   0.6383640000000000    0.6235950000000000    0.7107090000000000 O
   0.3616360000000000    0.8764050000000000    0.2107090000000000 O
   0.8616360000000000    0.1235949999999999    0.2892910000000000 O
   0.1383640000000002    0.3764050000000000    0.7892910000000000 O
   0.3616360000000000    0.3764050000000000    0.2892910000000000 O
   0.6383640000000000    0.1235949999999999    0.7892910000000000 O
   0.1383640000000002    0.8764050000000000    0.7107090000000000 O
   0.8616360000000000    0.6235950000000000    0.2107090000000000 O
   0.9957750000000000    0.2627040000000000    0.5257039999999999 O
   0.0042250000000000    0.2372960000000000    0.0257039999999999 O
   0.5042250000000000    0.7627040000000000    0.4742960000000001 O
   0.4957750000000001    0.7372960000000000    0.9742960000000001 O
   0.0042250000000000    0.7372960000000000    0.4742960000000001 O
   0.9957750000000000    0.7627040000000000    0.9742960000000001 O
   0.4957750000000001    0.2372960000000000    0.5257039999999999 O
   0.5042250000000000    0.2627040000000000    0.0257039999999999 O
