Ti18 O36
1.0
   9.9043379999999992    0.0000000000000000    0.0000000000000000
  -4.9472709999999980   10.6189090000000022    0.0000000000000000
  -4.9448119999999998   -3.2508639999999969   10.1378840000000032
Ti O
18 36
direct
   0.7516759999999999    0.0840340000000000    0.9168800000000000 Ti
   0.5679299999999999    0.0862050000000000    0.5885150000000000 Ti
   0.6739049999999999    0.5025570000000000    0.8358500000000000 Ti
   0.1581369999999999    0.0081530000000000    0.3198830000000000 Ti
   0.0752499999999999    0.2438840000000001    0.4155840000000000 Ti
   0.2579830000000000    0.5757080000000000    0.4171040000000000 Ti
   0.2621930000000000    0.2434200000000001    0.7495090000000000 Ti
   0.5748839999999998    0.7489930000000001    0.9188930000000000 Ti
   0.1642790000000000    0.6713550000000000    0.6497800000000000 Ti
   0.1652480000000000    0.3369940000000001    0.9824640000000000 Ti
   0.6656220000000000    0.1666360000000001    0.1696910000000000 Ti
   0.7563720000000000    0.4173920000000002    0.5847750000000000 Ti
   0.7470690000000000    0.7511060000000003    0.2521930000000000 Ti
   0.0736710000000000    0.9087840000000003    0.7501949999999999 Ti
   0.5719490000000000    0.4152910000000002    0.2550410000000000 Ti
   0.6634250000000000    0.8391520000000002    0.5012560000000000 Ti
   0.2516970000000001    0.9064060000000003    0.0845120000000000 Ti
   0.0754910000000000    0.5708250000000000    0.0832090000000000 Ti
   0.6008569999999999    0.0732610000000000    0.7520880000000000 O
   0.3490179999999999    0.0494300000000000    0.4758530000000000 O
   0.4878489999999999    0.3438970000000001    0.7960730000000000 O
   0.6284249999999999    0.6364290000000000    0.8562120000000000 O
   0.1168600000000000    0.1458620000000000    0.3207670000000000 O
   0.2169359999999999    0.4189370000000002    0.4496900000000000 O
   0.2110769999999999    0.0828900000000000    0.7765310000000000 O
   0.7112599999999999    0.9187860000000002    0.9291110000000000 O
   0.1226019999999999    0.5399150000000000    0.2409390000000000 O
   0.1294010000000000    0.2154530000000001    0.5745590000000000 O
   0.2118870000000000    0.3289010000000001    0.8480140000000000 O
   0.2035850000000000    0.6607900000000001    0.5119220000000000 O
   0.7226170000000000    0.1592890000000000    0.0407160000000000 O
   0.3520639999999999    0.7003970000000000    0.8025260000000000 O
   0.8481600000000000    0.1957900000000001    0.3248130000000000 O
   0.8492169999999999    0.5230490000000000    0.9911350000000000 O
   0.9741379999999998    0.5165600000000000    0.6129140000000000 O
   0.9696829999999999    0.1859230000000001    0.9452739999999999 O
   0.6224670000000000    0.3018170000000001    0.1889530000000000 O
   0.1276760000000000    0.4752730000000002    0.9960890000000000 O
   0.1207920000000000    0.8065540000000002    0.6649550000000000 O
   0.9703790000000000    0.8578560000000002    0.2954690000000000 O
   0.7159770000000000    0.2537090000000001    0.6020180000000001 O
   0.7075380000000000    0.5866150000000000    0.2676840000000000 O
   0.1204360000000000    0.8816280000000002    0.9100530000000000 O
   0.6075390000000001    0.7394570000000001    0.0830960000000000 O
   0.6038949999999998    0.4032310000000002    0.4186300000000000 O
   0.7366389999999999    0.5008980000000000    0.7099000000000000 O
   0.3494300000000000    0.3674470000000001    0.1389410000000000 O
   0.7072870000000000    0.8298720000000003    0.3654580000000000 O
   0.8502229999999998    0.8688180000000002    0.6537050000000000 O
   0.4784970000000000    0.0111010000000000    0.1364000000000000 O
   0.4839930000000000    0.6793110000000001    0.4679420000000000 O
   0.6069969999999999    0.9668830000000003    0.5185320000000000 O
   0.2070050000000000    0.7461179999999999    0.1106330000000000 O
   0.1960470000000000    0.9854270000000003    0.1832540000000000 O
