Ti2 O4
1.0
   1.7227530595626934   -2.9838958280573173    0.0000000000000000
   1.7227530595626934    2.9838958280573173    0.0000000000000000
   0.0000000000000000    0.0000000000000000   10.9523010000000003
Ti O
2 4
direct
   0.3333333333333333    0.6666666666666666    0.2500000000000000 Ti
   0.6666666666666667    0.3333333333333334    0.7500000000000000 Ti
   0.6666666666666666    0.3333333333333333    0.9063930000000000 O
   0.3333333333333333    0.6666666666666666    0.4063930000000000 O
   0.6666666666666667    0.3333333333333334    0.5936070000000000 O
   0.3333333333333334    0.6666666666666667    0.0936070000000000 O
