Ti8 O16
1.0
   8.7015154365752263    0.0000000000000000    0.0000000000000005
   0.0000000000000014    8.7015154365752263    0.0000000000000005
   0.0000000000000000    0.0000000000000000    3.7751111918531315
Ti O
8 16
direct
   0.2922817049999998    0.0028552450000001    0.0000000000000000 Ti
   0.5028552450000001    0.2077182950000002    0.5000000000000000 Ti
   0.4971447549999999    0.7922817049999998    0.5000000000000000 Ti
   0.7077182950000002    0.9971447549999999    0.0000000000000000 Ti
   0.7922817049999998    0.5028552450000001    0.5000000000000000 Ti
   0.0028552450000001    0.7077182950000002    0.0000000000000000 Ti
   0.9971447549999999    0.2922817049999997    0.0000000000000000 Ti
   0.2077182950000003    0.4971447549999999    0.5000000000000000 Ti
   0.4988638249999998    0.1507847150000000    0.0000000000000000 O
   0.1616620149999999    0.8403974050000000    0.0000000000000000 O
   0.6507847150000000    0.0011361750000002    0.5000000000000000 O
   0.6596025950000000    0.6616620149999999    0.5000000000000000 O
   0.3403974050000000    0.3383379850000001    0.5000000000000000 O
   0.3492152850000000    0.9988638249999997    0.5000000000000000 O
   0.8383379850000001    0.1596025950000000    0.0000000000000000 O
   0.5011361750000003    0.8492152850000000    0.0000000000000000 O
   0.9988638249999997    0.6507847150000000    0.5000000000000000 O
   0.6616620149999999    0.3403974050000000    0.5000000000000000 O
   0.1507847149999999    0.5011361750000003    0.0000000000000000 O
   0.1596025950000000    0.1616620149999999    0.0000000000000000 O
   0.8403974050000000    0.8383379850000001    0.0000000000000000 O
   0.8492152850000000    0.4988638249999997    0.0000000000000000 O
   0.3383379850000001    0.6596025950000000    0.5000000000000000 O
   0.0011361750000003    0.3492152850000001    0.5000000000000000 O
