Ti30 O60
1.0
  10.3265979332186166    0.0000000000000000    0.0000000000000000
   0.2118118521462826   10.3623122977075628    0.0000000000000000
   0.7406364942439636    0.3166112803115259   10.6002048071761106
Ti O
30 60
direct
   0.6996060000000000    0.7678280000000000    0.1697479999999998 Ti
   0.5086339999999999    0.2159480000000000    0.0631739999999998 Ti
   0.4192499999999999    0.5097630000000000    0.7353939999999999 Ti
   0.7726889999999998    0.1927640000000000    0.7619119999999999 Ti
   0.8551639999999999    0.6747440000000000    0.4732860000000000 Ti
   0.7563449999999999    0.4918300000000000    0.2473689999999998 Ti
   0.6900900000000000    0.9662860000000000    0.5653999999999998 Ti
   0.0050670000000000    0.4121010000000001    0.5775609999999998 Ti
   0.2819529999999999    0.2510270000000000    0.4605490000000000 Ti
   0.4919969999999999    0.4589740000000000    0.2548920000000000 Ti
   0.0038560000000000    0.5969770000000000    0.0395379999999997 Ti
   0.4461889999999998    0.9925340000000000    0.3410170000000000 Ti
   0.1931169999999999    0.9081120000000000    0.4420250000000000 Ti
   0.3154459999999999    0.9346830000000000    0.8882189999999999 Ti
   0.9952789999999999    0.8808020000000000    0.2049939999999999 Ti
   0.1083429999999999    0.6754599999999999    0.6868619999999999 Ti
   0.6862889999999999    0.1649810000000000    0.3112019999999999 Ti
   0.4000909999999999    0.7712370000000000    0.1649689999999998 Ti
   0.2377019999999999    0.4517840000000000    0.1762239999999998 Ti
   0.6754239999999999    0.4193000000000000    0.5266139999999998 Ti
   0.8432599999999999    0.0991720000000000    0.0670789999999998 Ti
   0.4726439999999998    0.2100649999999999    0.7307649999999999 Ti
   0.1810239999999999    0.1459680000000000    0.0612509999999998 Ti
   0.5738989999999999    0.7199880000000001    0.8782319999999999 Ti
   0.0601890000000000    0.9870290000000000    0.7779519999999999 Ti
   0.9950709999999999    0.3417230000000000    0.2776640000000000 Ti
   0.8756859999999999    0.7876290000000000    0.8735169999999999 Ti
   0.3880589999999999    0.7974700000000000    0.6340619999999999 Ti
   0.9490209999999999    0.1245039999999999    0.5375259999999997 Ti
   0.1530510000000000    0.3131040000000000    0.7802169999999999 Ti
   0.1573919999999999    0.0217540000000001    0.9232120000000000 O
   0.7233480000000000    0.7821620000000000    0.7985379999999999 O
   0.8432999999999999    0.1960460000000001    0.9159640000000000 O
   0.6439170000000000    0.3500160000000000    0.2080839999999998 O
   0.2442199999999999    0.5904820000000000    0.7527929999999999 O
   0.3591639999999999    0.5959360000000000    0.2065799999999999 O
   0.8624089999999999    0.2073540000000000    0.2103779999999998 O
   0.2105869999999999    0.7563430000000000    0.5537119999999998 O
   0.8467119999999999    0.2958870000000000    0.6235639999999998 O
   0.9029839999999999    0.4649410000000000    0.1390639999999999 O
   0.1643839999999999    0.5126430000000000    0.0374499999999998 O
   0.5455150000000000    0.8518170000000000    0.2497829999999999 O
   0.1790310000000000    0.3603850000000000    0.5808099999999998 O
   0.5626719999999999    0.7796190000000001    0.0379309999999998 O
   0.5565960000000000    0.3887070000000000    0.6617699999999999 O
   0.0498950000000000    0.7440040000000000    0.1114859999999998 O
   0.2664909999999999    0.0916330000000000    0.3816170000000000 O
   0.9219179999999999    0.9495630000000000    0.9221560000000000 O
   0.5663859999999999    0.2372030000000001    0.8956329999999999 O
   0.1315279999999999    0.2674420000000000    0.9487430000000000 O
   0.5868450000000000    0.4933250000000000    0.3994900000000000 O
   0.6181400000000000    0.5923740000000000    0.1811109999999998 O
   0.3996459999999998    0.0698120000000000    0.8019719999999999 O
   0.9934699999999999    0.8214410000000000    0.7238949999999998 O
   0.4147579999999998    0.3678850000000000    0.1127129999999998 O
   0.0830900000000000    0.0023560000000000    0.5522959999999998 O
   0.5186989999999999    0.5543060000000000    0.8606659999999999 O
   0.3065459999999999    0.8775890000000000    0.2792199999999999 O
   0.7967230000000000    0.6772540000000000    0.3025639999999999 O
   0.0118360000000000    0.4216470000000000    0.7473159999999999 O
   0.8397049999999999    0.0727130000000000    0.4332619999999999 O
   0.0480159999999999    0.0395720000000001    0.1429619999999998 O
   0.0496280000000000    0.8416170000000001    0.3594220000000000 O
   0.3745519999999999    0.9187110000000001    0.4997580000000000 O
   0.2240330000000000    0.8799780000000000    0.7518049999999998 O
   0.6367240000000000    0.1188080000000000    0.6783789999999998 O
   0.0326109999999999    0.2644180000000000    0.4380590000000000 O
   0.8184869999999999    0.9147260000000000    0.1768529999999998 O
   0.0989290000000000    0.4846530000000000    0.2913929999999999 O
   0.6721449999999999    0.1096700000000000    0.0930029999999998 O
   0.6677699999999999    0.2608850000000000    0.4419870000000000 O
   0.3132159999999999    0.8285160000000000    0.0347389999999997 O
   0.8683929999999999    0.0521000000000000    0.6970169999999999 O
   0.3484039999999999    0.3804170000000000    0.3509850000000000 O
   0.6117490000000000    0.0126830000000000    0.4154639999999999 O
   0.1504119999999999    0.2776450000000000    0.1880299999999998 O
   0.3596719999999999    0.1146400000000000    0.0530669999999998 O
   0.9980389999999999    0.6382090000000000    0.8712119999999999 O
   0.0927940000000000    0.1607310000000000    0.7276519999999999 O
   0.7526710000000000    0.5723870000000000    0.5750379999999998 O
   0.4386689999999999    0.8047310000000000    0.8114209999999998 O
   0.3998119999999998    0.2063510000000000    0.5672629999999997 O
   0.5629000000000000    0.8676210000000000    0.6152659999999998 O
   0.0113740000000000    0.5957960000000000    0.5554149999999998 O
   0.8521899999999999    0.4343430000000000    0.3872209999999999 O
   0.3367009999999999    0.3432260000000000    0.7802349999999999 O
   0.5030490000000000    0.1460660000000000    0.2612080000000000 O
   0.8135509999999999    0.7055540000000000    0.0303509999999998 O
   0.4486189999999999    0.6342710000000000    0.6060499999999998 O
   0.8110820000000000    0.8275710000000001    0.5253419999999998 O
