Ti4 O8
1.0
   3.7729930299999999    0.0000000000000000    0.0000000000000002
   0.0000000000000010    5.9868347699999998    0.0000000000000004
   0.0000000000000000    0.0000000000000000    9.0731507100000002
Ti O
4 8
direct
   0.2500000000000000    0.4878731900000000    0.8641472800000001 Ti
   0.7500000000000000    0.5121268100000000    0.1358527199999999 Ti
   0.2500000000000000    0.9878731900000000    0.6358527199999999 Ti
   0.7500000000000000    0.0121268100000000    0.3641472800000001 Ti
   0.7500000000000000    0.4623183100000001    0.9183178000000001 O
   0.2500000000000000    0.7361008000000000    0.7545325600000000 O
   0.7500000000000000    0.2638992000000000    0.2454674400000000 O
   0.2500000000000000    0.5376816899999999    0.0816821999999999 O
   0.7500000000000000    0.9623183100000001    0.5816821999999999 O
   0.2500000000000000    0.2361008000000000    0.7454674400000000 O
   0.7500000000000000    0.7638992000000000    0.2545325599999999 O
   0.2500000000000000    0.0376816899999999    0.4183178000000001 O
