&CONTROL
  calculation = 'scf',
  etot_conv_thr = 1d-08,
  prefix = 'scf',
  pseudo_dir = '../pseudos',
  verbosity = 'high',
/
&SYSTEM
  ecutrho = 500,
  ecutwfc = 80,
  nat = 12,
  nbnd = 76.0,
  nosym = .TRUE.,
  ntyp = 2,
  ibrav = 0,
/
&ELECTRONS
  conv_thr = 1d-08,
  mixing_beta = 0.4,
/
&IONS
/
&CELL
/
ATOMIC_SPECIES
  O  15.9994 O.pbe-n-kjpaw_psl.1.0.0.UPF
  Ti  47.8670 Ti.pbe-spn-kjpaw_psl.1.0.0.UPF
ATOMIC_POSITIONS crystal
  O 0.500000 0.500000 0.196067
  O 0.196067 0.000000 1.000000
  O 0.803933 0.000000 1.000000
  O 1.000000 0.500000 0.303933
  O 1.000000 0.500000 0.696067
  O 0.696067 1.000000 0.500000
  O 0.303933 1.000000 0.500000
  O 0.500000 0.500000 0.803933
  Ti 0.500000 0.000000 0.000000
  Ti 0.000000 0.500000 0.000000
  Ti 0.000000 1.000000 0.500000
  Ti 0.500000 0.500000 0.500000
K_POINTS automatic
  4 7 4 0 0 0
CELL_PARAMETERS angstrom
  6.492607 0.000000 0.000000
  0.000000 2.952068 0.000000
  0.000000 0.000000 6.492607