ALGO = Normal
AMIN = 0.01
BMIX = 3
EDIFF = 1e-06
ENCUT = 400.0
IBRION = -1
ISMEAR = 0
LCHARG = True
LORBIT = 11
LREAL = Auto
LWAVE = False
NCORE = 4
NSW = 0
PREC = Accurate
SIGMA = 0.01
