Ti3 O6
1.0
  -2.9682645462907264    0.0000000000000000    0.0000000000000000
  -0.0002080833605191   -4.7076067548831402    0.0000000000000000
   1.4835696210947855    0.2423534620264341    7.0834647979176131
Ti O
3 6
direct
   0.3382918600000001    0.4795256400000000    0.6844963600000001 Ti
   0.6553597900000001    0.5197403500000000    0.3169598700000001 Ti
   0.9966281299999998    0.9996111900000000    0.0007031900000001 Ti
   0.4319743300000001    0.1846999400000000    0.8728271800000000 O
   0.7705928500000000    0.2969927200000000    0.5495147300000001 O
   0.0935027900000001    0.3081630100000000    0.1951715700000001 O
   0.8987637600000000    0.6910465800000001    0.8062432200000000 O
   0.2220736600000000    0.7022712500000001    0.4518780700000001 O
   0.5599618400000000    0.8145623100000000    0.1285388000000001 O
