Ti8 O16
1.0
   5.9463200000000001    0.0000000000000000    0.0000000000000004
  -0.0000000000000004    6.5747380000000000    0.0000000000000004
   0.0000000000000000    0.0000000000000000    6.5748040000000003
Ti O
8 16
direct
   0.5000000000000000    0.2500000000000000    0.2547550000000000 Ti
   0.0000000000000000    0.2500000000000000    0.2452450000000000 Ti
   0.2500000000000000    0.2500000000000000    0.7500000000000000 Ti
   0.2500000000000000    0.7500000000000000    0.2500000000000000 Ti
   0.0000000000000000    0.7500000000000000    0.7547550000000001 Ti
   0.5000000000000000    0.7500000000000000    0.7452449999999999 Ti
   0.7500000000000000    0.7500000000000000    0.2500000000000000 Ti
   0.7500000000000000    0.2500000000000000    0.7500000000000000 Ti
   0.2498510000000000    0.2500000000000000    0.0549190000000001 O
   0.5000000000000000    0.4451010000000000    0.7503830000000000 O
   0.2501490000000000    0.7500000000000000    0.5549190000000001 O
   0.0000000000000000    0.5548990000000000    0.2503830000000000 O
   0.5000000000000000    0.9451010000000000    0.2496170000000000 O
   0.0000000000000000    0.0548990000000000    0.7496170000000000 O
   0.2498510000000000    0.7500000000000000    0.9450809999999999 O
   0.2501490000000000    0.2500000000000000    0.4450809999999999 O
   0.7498510000000000    0.7500000000000000    0.5549190000000001 O
   0.0000000000000000    0.9451010000000000    0.2503830000000000 O
   0.7501490000000000    0.2500000000000000    0.0549189999999999 O
   0.5000000000000000    0.0548990000000000    0.7503830000000000 O
   0.0000000000000000    0.4451010000000000    0.7496170000000000 O
   0.5000000000000000    0.5548990000000000    0.2496170000000000 O
   0.7498510000000000    0.2500000000000000    0.4450810000000001 O
   0.7501490000000000    0.7500000000000000    0.9450809999999999 O
