Ti12 O24
1.0
   3.0104242943080299   -5.2142078300811905    0.0000000000000000
   3.0104242943080299    5.2142078300811905    0.0000000000000000
   0.0000000000000000    0.0000000000000000   14.7841959999999997
Ti O
12 24
direct
   0.9779213333333334    0.4889606666666667    0.1637260000000000 Ti
   0.1709473333333332    0.8290526666666668    0.4941840000000000 Ti
   0.3333333333333333    0.6666666666666666    0.3184800000000000 Ti
   0.5110393333333333    0.0220786666666666    0.1637260000000000 Ti
   0.6581053333333335    0.8290526666666668    0.4941840000000000 Ti
   0.5110393333333333    0.4889606666666667    0.1637260000000000 Ti
   0.0000000000000000    0.0000000000000000    0.6523620000000000 Ti
   0.1709473333333332    0.3418946666666665    0.4941840000000000 Ti
   0.3231083333333333    0.1615541666666667    0.8313030000000000 Ti
   0.8384458333333333    0.6768916666666667    0.8313030000000000 Ti
   0.8384458333333333    0.1615541666666667    0.8313030000000000 Ti
   0.3333333333333333    0.6666666666666666    0.9552500000000000 Ti
   0.3569713333333333    0.1784856666666667    0.1043010000000000 O
   0.8215143333333333    0.6430286666666667    0.1043010000000000 O
   0.6666666666666666    0.3333333333333333    0.2377819999999999 O
   0.8215143333333333    0.1784856666666667    0.1043010000000000 O
   0.0377803333333333    0.5188901666666667    0.4268810000000001 O
   0.1910683333333332    0.8089316666666668    0.2459169999999999 O
   0.3333333333333333    0.6666666666666666    0.0827730000000000 O
   0.1910683333333332    0.3821366666666663    0.2459169999999999 O
   0.4811098333333333    0.9622196666666667    0.4268810000000001 O
   0.3333333333333333    0.6666666666666666    0.5665800000000000 O
   0.4811098333333333    0.5188901666666667    0.4268810000000001 O
   0.6178633333333337    0.8089316666666668    0.2459169999999999 O
   0.7131913333333333    0.8565956666666666    0.7593740000000000 O
   0.8554413333333333    0.1445586666666667    0.5800230000000000 O
   0.0000000000000000    0.0000000000000000    0.4345980000000000 O
   0.8554413333333333    0.7108826666666666    0.5800230000000000 O
   0.0000000000000000    0.0000000000000000    0.9028850000000000 O
   0.1434043333333334    0.2868086666666667    0.7593740000000000 O
   0.1434043333333334    0.8565956666666666    0.7593740000000000 O
   0.2891173333333334    0.1445586666666667    0.5800230000000000 O
   0.4944013333333331    0.5055986666666669    0.9034990000000001 O
   0.4944013333333331    0.9888026666666663    0.9034990000000001 O
   0.6666666666666666    0.3333333333333333    0.7756850000000000 O
   0.0111973333333337    0.5055986666666669    0.9034990000000001 O
