Ti12 O24
1.0
   3.0140991701555704   -5.2205729017606384    0.0000000000000000
   3.0140991701555704    5.2205729017606384    0.0000000000000000
   0.0000000000000000    0.0000000000000000   14.6158079999999995
Ti O
12 24
direct
   0.3116293333333333    0.1558146666666667    0.8358690000000000 Ti
   0.8441853333333333    0.1558146666666667    0.8358690000000000 Ti
   0.9778423333333333    0.4889211666666666    0.5075290000000002 Ti
   0.8441853333333333    0.6883706666666667    0.8358690000000000 Ti
   0.5110788333333334    0.4889211666666666    0.5075290000000002 Ti
   0.3333333333333333    0.6666666666666666    0.3522130000000000 Ti
   0.3333333333333333    0.6666666666666666    0.7157300000000001 Ti
   0.6549153333333334    0.8274576666666666    0.1687360000000002 Ti
   0.5110788333333334    0.0221576666666667    0.5075290000000002 Ti
   0.1725423333333334    0.8274576666666668    0.1687360000000002 Ti
   0.1725423333333332    0.3450846666666666    0.1687360000000002 Ti
   0.6666666666666666    0.3333333333333333    0.0431550000000002 Ti
   0.7016403333333334    0.8508201666666667    0.8992740000000001 O
   0.0000000000000000    0.0000000000000000    0.7606260000000001 O
   0.1491798333333333    0.8508201666666667    0.8992740000000001 O
   0.1491798333333333    0.2983596666666666    0.8992740000000001 O
   0.3558883333333334    0.1779441666666667    0.5664690000000002 O
   0.4981773333333333    0.9963546666666666    0.7601100000000001 O
   0.6666666666666666    0.3333333333333333    0.4321950000000000 O
   0.4981773333333333    0.5018226666666668    0.7601100000000001 O
   0.6666666666666666    0.3333333333333333    0.9092330000000000 O
   0.8220558333333333    0.1779441666666667    0.5664690000000002 O
   0.8220558333333333    0.6441116666666666    0.5664690000000002 O
   0.0036453333333334    0.5018226666666668    0.7601100000000001 O
   0.0457683333333334    0.5228841666666667    0.2383050000000002 O
   0.1899528333333333    0.3799056666666667    0.4226540000000000 O
   0.1899528333333333    0.8100471666666667    0.4226540000000000 O
   0.3333333333333333    0.6666666666666666    0.0942510000000002 O
   0.3333333333333333    0.6666666666666666    0.5837650000000002 O
   0.4771158333333333    0.5228841666666667    0.2383050000000002 O
   0.4771158333333333    0.9542316666666666    0.2383050000000002 O
   0.6200943333333333    0.8100471666666667    0.4226540000000000 O
   0.8263773333333333    0.6527546666666666    0.0933760000000002 O
   0.8263773333333333    0.1736226666666667    0.0933760000000002 O
   0.0000000000000000    0.0000000000000000    0.2215710000000002 O
   0.3472453333333334    0.1736226666666667    0.0933760000000002 O
