Ti3 O6
1.0
   2.7911113677590391   -4.8343466985417169    0.0000000000000000
   2.7911113677590391    4.8343466985417169    0.0000000000000000
   0.0000000000000000    0.0000000000000000    6.0824678800000003
Ti O
3 6
direct
   0.5330632500000000    0.5330632500000000    0.0000000000000000 Ti
   0.0000000000000000    0.4669367500000000    0.6666666666666666 Ti
   0.4669367500000000    0.0000000000000000    0.3333333333333333 Ti
   0.4189342800000000    0.2703674600000000    0.2126694000000000 O
   0.1485668200000000    0.7296325400000000    0.4539972666666666 O
   0.8514331800000000    0.5810657200000000    0.8793360666666666 O
   0.2703674600000000    0.4189342800000000    0.7873306000000000 O
   0.7296325400000000    0.1485668200000000    0.5460027333333333 O
   0.5810657200000000    0.8514331800000000    0.1206639333333333 O
