Ti4 O8
1.0
   3.7067539200000001    0.0000000000000000    0.0000000000000002
  -0.0000000000000004    5.7200737899999998    0.0000000000000004
   0.0000000000000000    0.0000000000000000    8.7113265500000008
Ti O
4 8
direct
   0.2500000000000000    0.9208496399999999    0.3682422300000000 Ti
   0.7500000000000000    0.0791503600000001    0.6317577700000000 Ti
   0.2500000000000000    0.4208496399999999    0.1317577700000000 Ti
   0.7500000000000000    0.5791503600000001    0.8682422300000000 Ti
   0.7500000000000000    0.9079545099999999    0.4320043500000000 O
   0.2500000000000000    0.1201851899999999    0.2130906300000001 O
   0.7500000000000000    0.8798148100000001    0.7869093699999999 O
   0.2500000000000000    0.0920454900000001    0.5679956500000000 O
   0.7500000000000000    0.4079545099999999    0.0679956500000000 O
   0.2500000000000000    0.6201851899999999    0.2869093699999999 O
   0.7500000000000000    0.3798148100000001    0.7130906300000001 O
   0.2500000000000000    0.5920454900000001    0.9320043500000000 O
