Ti16 O32
1.0
   8.4383499999999998    0.0000000000000000    0.0000000000000005
   0.0000000000000014    8.4383499999999998    0.0000000000000005
   0.0000000000000000    0.0000000000000000    8.4383499999999998
Ti O
16 32
direct
   0.3750000000000000    0.8750000000000000    0.1250000000000000 Ti
   0.1250000000000000    0.8750000000000000    0.3750000000000000 Ti
   0.3750000000000000    0.6250000000000000    0.3750000000000000 Ti
   0.1250000000000000    0.6250000000000000    0.1250000000000000 Ti
   0.3750000000000000    0.3750000000000000    0.6250000000000000 Ti
   0.1250000000000000    0.3750000000000000    0.8750000000000000 Ti
   0.3750000000000000    0.1250000000000000    0.8750000000000000 Ti
   0.1250000000000000    0.1250000000000000    0.6250000000000000 Ti
   0.8750000000000000    0.8750000000000000    0.6250000000000000 Ti
   0.6250000000000000    0.8750000000000000    0.8750000000000000 Ti
   0.8750000000000000    0.6250000000000000    0.8750000000000000 Ti
   0.6250000000000000    0.6250000000000000    0.6250000000000000 Ti
   0.8750000000000000    0.3750000000000000    0.1250000000000000 Ti
   0.6250000000000000    0.3750000000000000    0.3750000000000000 Ti
   0.8750000000000000    0.1250000000000000    0.3750000000000000 Ti
   0.6250000000000000    0.1250000000000000    0.1250000000000000 Ti
   0.3907990000000000    0.3907990000000000    0.3907990000000000 O
   0.1092010000000000    0.3907990000000000    0.1092010000000000 O
   0.1092010000000000    0.1092010000000000    0.3907990000000000 O
   0.3907990000000000    0.1092010000000000    0.1092010000000000 O
   0.6407989999999999    0.1407989999999999    0.3592010000000000 O
   0.8592010000000001    0.1407989999999999    0.1407989999999999 O
   0.1407989999999999    0.8592010000000001    0.1407989999999999 O
   0.3592010000000000    0.8592010000000001    0.3592010000000000 O
   0.3907990000000000    0.8907989999999999    0.8907989999999999 O
   0.1092010000000000    0.8907989999999999    0.6092010000000001 O
   0.1092010000000000    0.6092010000000001    0.8907989999999999 O
   0.3907990000000000    0.6092010000000001    0.6092010000000001 O
   0.6407989999999999    0.6407989999999999    0.8592010000000001 O
   0.8592010000000001    0.6407989999999999    0.6407989999999999 O
   0.1407989999999999    0.3592010000000001    0.6407989999999999 O
   0.3592010000000000    0.3592010000000001    0.8592010000000001 O
   0.8907989999999999    0.3907990000000000    0.8907989999999999 O
   0.6092010000000001    0.3907990000000000    0.6092010000000001 O
   0.6092010000000001    0.1092010000000000    0.8907989999999999 O
   0.8907989999999999    0.1092010000000000    0.6092010000000001 O
   0.1407989999999999    0.1407989999999999    0.8592010000000001 O
   0.3592010000000001    0.1407989999999999    0.6407989999999999 O
   0.6407989999999999    0.8592010000000001    0.6407989999999999 O
   0.8592010000000001    0.8592010000000001    0.8592010000000001 O
   0.8907989999999999    0.8907989999999999    0.3907990000000000 O
   0.6092010000000001    0.8907989999999999    0.1092010000000000 O
   0.6092010000000001    0.6092010000000001    0.3907990000000000 O
   0.8907989999999999    0.6092010000000001    0.1092010000000000 O
   0.1407989999999999    0.6407989999999999    0.3592010000000000 O
   0.3592010000000001    0.6407989999999999    0.1407989999999999 O
   0.6407989999999999    0.3592010000000001    0.1407989999999999 O
   0.8592010000000001    0.3592010000000001    0.3592010000000000 O
