Ti30 O60
1.0
 -10.4861761779139488    0.0000000000000000    0.0000000000000000
   1.1379551396974401   10.5298129600903714    0.0000000000000000
  -0.0060328200944446   -1.2543542668355534  -10.7115406527033326
Ti O
30 60
direct
   0.6148330000000002    0.1795260000000000    0.6520619999999999 Ti
   0.4731410000000001    0.8558280000000000    0.8991309999999998 Ti
   0.3569770000000000    0.5225649999999999    0.1934749999999998 Ti
   0.8007070000000001    0.7534459999999999    0.2090509999999999 Ti
   0.9265850000000000    0.2955110000000001    0.5601880000000000 Ti
   0.7951840000000001    0.4221490000000000    0.8368589999999998 Ti
   0.7365310000000000    0.9953250000000000    0.4397489999999997 Ti
   0.9190180000000000    0.5577520000000000    0.4788969999999997 Ti
   0.2375670000000001    0.6380680000000000    0.4554659999999998 Ti
   0.5448780000000001    0.4846980000000001    0.6314590000000000 Ti
   0.1710580000000002    0.3732310000000000    0.9604359999999998 Ti
   0.4596100000000000    0.8970650000000000    0.5732849999999999 Ti
   0.1988040000000001    0.0856340000000000    0.5698750000000000 Ti
   0.3639920000000000    0.0719700000000000    0.1276979999999999 Ti
   0.9728420000000000    0.1663030000000000    0.8134119999999998 Ti
   0.1890970000000001    0.3048750000000000    0.3460389999999999 Ti
   0.7434070000000002    0.8750220000000000    0.6998239999999999 Ti
   0.3925520000000001    0.2986720000000000    0.7700479999999998 Ti
   0.2643900000000000    0.6044910000000000    0.7776519999999998 Ti
   0.6268310000000001    0.6839090000000000    0.4398609999999997 Ti
   0.8323780000000001    0.9234460000000000    0.9541559999999998 Ti
   0.5137050000000001    0.8301690000000000    0.2329329999999998 Ti
   0.1599420000000001    0.8586040000000000    0.9858329999999997 Ti
   0.6050430000000001    0.3184990000000000    0.0998000000000000 Ti
   0.0403520000000002    0.1051120000000000    0.0959699999999999 Ti
   0.9721020000000000    0.6600290000000000    0.7512319999999998 Ti
   0.7150770000000002    0.2646660000000001    0.3590999999999999 Ti
   0.4318330000000000    0.1632880000000000    0.3861719999999997 Ti
   0.0294820000000001    0.8751989999999999    0.4855129999999998 Ti
   0.0496110000000001    0.6878030000000001    0.2387799999999999 Ti
   0.1747210000000001    0.0089880000000000    0.1260440000000000 O
   0.7428470000000000    0.2866620000000000    0.1963849999999999 O
   0.8004810000000000    0.7945620000000000    0.0514840000000000 O
   0.6791010000000002    0.4985780000000000    0.7337880000000000 O
   0.2025530000000001    0.4763070000000000    0.1068700000000000 O
   0.5090210000000002    0.3074190000000000    0.6025520000000000 O
   0.8652300000000001    0.7917780000000000    0.7791289999999997 O
   0.2826190000000001    0.2267350000000000    0.4607239999999998 O
   0.7890200000000001    0.6454580000000000    0.4169559999999998 O
   0.8959760000000000    0.5719630000000000    0.8755329999999998 O
   0.3325120000000000    0.3385929999999999    0.9319449999999998 O
   0.5149200000000000    0.1872090000000000    0.7899589999999999 O
   0.1603730000000001    0.7740280000000000    0.3984019999999998 O
   0.5030260000000001    0.1670370000000000    0.0630430000000000 O
   0.6278530000000001    0.6982810000000000    0.2521319999999999 O
   0.9361320000000000    0.3237230000000000    0.8713199999999999 O
   0.1346160000000001    0.9371130000000000    0.6267910000000000 O
   0.8646340000000001    0.0594570000000000    0.0763520000000000 O
   0.5315190000000001    0.8610070000000000    0.0776270000000000 O
   0.1336080000000001    0.7464890000000000    0.0979909999999999 O
   0.5442510000000000    0.5333410000000000    0.4711299999999998 O
   0.6889210000000001    0.3744490000000000    0.9627259999999999 O
   0.4326630000000001    0.0066990000000000    0.2649989999999999 O
   0.0692860000000001    0.2347110000000000    0.2222519999999999 O
   0.3891670000000002    0.6971810000000001    0.8871339999999998 O
   0.0869950000000002    0.0317180000000000    0.4353889999999998 O
   0.4963720000000001    0.4472480000000000    0.1437860000000000 O
   0.2528970000000000    0.2049470000000000    0.7123110000000000 O
   0.7695950000000000    0.2689920000000000    0.6880510000000000 O
   0.0472700000000001    0.5574770000000000    0.3631159999999998 O
   0.8480450000000000    0.9145529999999999    0.5382440000000001 O
   0.0197300000000001    0.9367910000000000    0.9457939999999998 O
   0.0129220000000001    0.1826620000000000    0.6490159999999999 O
   0.3715160000000001    0.0297120000000001    0.5279619999999999 O
   0.3179510000000000    0.2081240000000000    0.2361689999999999 O
   0.5741770000000002    0.8667820000000001    0.4240679999999998 O
   0.9819940000000000    0.7085380000000000    0.5773360000000000 O
   0.8433850000000001    0.0400250000000000    0.8085969999999998 O
   0.1620750000000001    0.4804320000000000    0.8405479999999999 O
   0.6568460000000000    0.8859080000000000    0.8615379999999998 O
   0.6364740000000001    0.7450070000000000    0.6163050000000000 O
   0.3997140000000000    0.4838160000000000    0.7321700000000000 O
   0.7496890000000000    0.9301480000000000    0.2820899999999998 O
   0.2111800000000001    0.5971290000000000    0.6121590000000000 O
   0.6353830000000000    0.0006389999999999    0.6296860000000000 O
   0.1321640000000001    0.7291230000000000    0.8275829999999997 O
   0.3324420000000000    0.9451800000000000    0.9703769999999998 O
   0.0968240000000001    0.1929950000000000    0.9571289999999998 O
   0.9592010000000000    0.8219109999999999    0.2998879999999999 O
   0.8005210000000000    0.3971620000000000    0.4572469999999997 O
   0.5406260000000001    0.2914850000000000    0.3322159999999998 O
   0.3867800000000000    0.7361000000000000    0.4980329999999997 O
   0.6069950000000002    0.1296090000000000    0.4518079999999998 O
   0.0667770000000001    0.3339840000000001    0.4659539999999998 O
   0.9413430000000000    0.4843630000000000    0.6393630000000000 O
   0.3784290000000000    0.6967449999999999    0.2226559999999999 O
   0.4269790000000001    0.8827420000000000    0.7358120000000000 O
   0.8971210000000001    0.6142420000000000    0.1728929999999999 O
   0.2840930000000000    0.4789639999999999    0.3481999999999998 O
   0.8397160000000000    0.1638930000000001    0.4394339999999998 O
