Ti12 O24
1.0
   3.0107780825512944   -5.2148206092936453    0.0000000000000000
   3.0107780825512944    5.2148206092936453    0.0000000000000000
   0.0000000000000000    0.0000000000000000   14.2810978988740587
Ti O
12 24
direct
   0.3333333333333333    0.6666666666666666    0.9090146666666666 Ti
   0.9788006666666667    0.4894003333333333    0.1204363333333335 Ti
   0.5105996666666667    0.4894003333333333    0.1204363333333335 Ti
   0.5105996666666667    0.0211993333333333    0.1204363333333335 Ti
   0.0000000000000000    0.0000000000000000    0.2423480000000000 Ti
   0.6454673333333334    0.8227336666666667    0.4537696666666667 Ti
   0.1772663333333333    0.8227336666666667    0.4537696666666667 Ti
   0.1772663333333333    0.3545326666666667    0.4537696666666667 Ti
   0.6666666666666666    0.3333333333333333    0.5756813333333333 Ti
   0.3121339999999999    0.1560670000000000    0.7871030000000001 Ti
   0.8439330000000000    0.1560670000000000    0.7871030000000001 Ti
   0.8439330000000000    0.6878660000000000    0.7871030000000001 Ti
   0.1650783333333332    0.3301566666666664    0.2003276666666667 O
   0.1650783333333332    0.8349216666666668    0.2003276666666667 O
   0.6698433333333336    0.8349216666666668    0.2003276666666667 O
   0.3333333333333333    0.6666666666666666    0.0489276666666666 O
   0.3333333333333333    0.6666666666666666    0.5319136666666667 O
   0.0329166666666667    0.5164583333333334    0.3901343333333334 O
   0.4835416666666666    0.5164583333333332    0.3901343333333334 O
   0.4835416666666667    0.9670833333333333    0.3901343333333334 O
   0.8317449999999998    0.6634899999999997    0.5336609999999999 O
   0.8317449999999998    0.1682550000000000    0.5336609999999999 O
   0.3365100000000001    0.1682550000000000    0.5336609999999999 O
   0.0000000000000000    0.0000000000000000    0.3822610000000000 O
   0.0000000000000000    0.0000000000000000    0.8652470000000001 O
   0.6995833333333333    0.8497916666666667    0.7234676666666667 O
   0.1502083333333333    0.8497916666666665    0.7234676666666667 O
   0.1502083333333333    0.3004166666666666    0.7234676666666667 O
   0.4984116666666665    0.9968233333333331    0.8669943333333333 O
   0.4984116666666665    0.5015883333333333    0.8669943333333333 O
   0.0031766666666668    0.5015883333333333    0.8669943333333333 O
   0.6666666666666666    0.3333333333333333    0.7155943333333332 O
   0.6666666666666666    0.3333333333333333    0.1985803333333334 O
   0.3662500000000000    0.1831250000000000    0.0568010000000001 O
   0.8168750000000000    0.1831250000000000    0.0568010000000001 O
   0.8168750000000000    0.6337500000000000    0.0568010000000001 O
