Ti8 O16
1.0
   0.0000000000000000   12.3071543861674613    0.0000000000000000
   3.7669370000000000    0.0000000000000000    0.0000000000000000
   0.0000000000000000   -1.9283261077759497   -6.3289668713051936
Ti O
8 16
direct
   0.1952860000000000    0.0000000000000000    0.2837620000000001 Ti
   0.4000710000000001    0.5000000000000000    0.2896020000000000 Ti
   0.3047140000000000    0.5000000000000000    0.7162379999999999 Ti
   0.0999289999999999    0.0000000000000000    0.7103980000000000 Ti
   0.6952859999999998    0.5000000000000000    0.2837620000000001 Ti
   0.9000710000000001    0.0000000000000000    0.2896020000000000 Ti
   0.8047140000000002    0.0000000000000000    0.7162379999999999 Ti
   0.5999289999999999    0.5000000000000000    0.7103980000000000 Ti
   0.4416475000000000    0.5000000000000000    0.6300210000000001 O
   0.3619310000000000    0.0000000000000000    0.2933970000000000 O
   0.3671884999999999    0.5000000000000000    0.9952910000000000 O
   0.0583525000000000    0.0000000000000000    0.3699789999999999 O
   0.2634885000000000    0.0000000000000000    0.6525000000000000 O
   0.1328115000000001    0.0000000000000000    0.0047090000000000 O
   0.2365115000000000    0.5000000000000000    0.3475000000000000 O
   0.1380690000000000    0.5000000000000000    0.7066030000000000 O
   0.9416475000000000    0.0000000000000000    0.6300210000000001 O
   0.8619310000000000    0.5000000000000000    0.2933970000000000 O
   0.8671884999999999    0.0000000000000000    0.9952910000000000 O
   0.5583525000000000    0.5000000000000000    0.3699789999999999 O
   0.7634885000000000    0.5000000000000000    0.6525000000000000 O
   0.6328115000000001    0.5000000000000000    0.0047090000000000 O
   0.7365115000000000    0.0000000000000000    0.3475000000000000 O
   0.6380690000000000    0.0000000000000000    0.7066030000000000 O
