Ti8 O16
1.0
   2.9481940000000000    0.0000000000000000    0.0000000000000002
  -0.0000000000000006    9.5930599999999995    0.0000000000000006
   0.0000000000000000    0.0000000000000000   10.2352229999999995
Ti O
8 16
direct
   0.5000000000000000    0.3669130000000000    0.5831420000000000 Ti
   0.0000000000000000    0.1330870000000000    0.4168580000000000 Ti
   0.5000000000000000    0.3669130000000000    0.9168580000000000 Ti
   0.0000000000000000    0.1330870000000000    0.0831420000000000 Ti
   0.0000000000000000    0.8669130000000000    0.5831420000000000 Ti
   0.5000000000000000    0.6330870000000000    0.4168580000000000 Ti
   0.0000000000000000    0.8669130000000000    0.9168580000000000 Ti
   0.5000000000000000    0.6330870000000000    0.0831420000000000 Ti
   0.0000000000000000    0.2456000000000000    0.8971340000000000 O
   0.5000000000000000    0.2544000000000000    0.1028660000000000 O
   0.5000000000000000    0.2544000000000000    0.3971339999999999 O
   0.0000000000000000    0.2456000000000000    0.6028660000000000 O
   0.5000000000000000    0.4342350000000000    0.7500000000000000 O
   0.0000000000000000    0.0657650000000000    0.2500000000000000 O
   0.5000000000000000    0.0000000000000000    0.5000000000000000 O
   0.5000000000000000    0.0000000000000000    0.0000000000000000 O
   0.5000000000000000    0.7456000000000000    0.8971340000000000 O
   0.0000000000000000    0.7544000000000000    0.1028660000000000 O
   0.0000000000000000    0.7544000000000000    0.3971339999999999 O
   0.5000000000000000    0.7456000000000000    0.6028660000000000 O
   0.0000000000000000    0.9342350000000000    0.7500000000000000 O
   0.5000000000000000    0.5657650000000000    0.2500000000000000 O
   0.0000000000000000    0.5000000000000000    0.5000000000000000 O
   0.0000000000000000    0.5000000000000000    0.0000000000000000 O
