Ti4 O8
1.0
   2.9662376699999999    0.0000000000000000    0.0000000000000002
   0.0000000000000008    4.8806004900000000    0.0000000000000003
   0.0000000000000000    0.0000000000000000    9.4596277200000003
Ti O
4 8
direct
   0.2500000000000000    0.5714066399999999    0.6367910499999999 Ti
   0.7500000000000000    0.4285933600000001    0.3632089500000001 Ti
   0.7500000000000000    0.0714066399999997    0.8632089500000001 Ti
   0.2500000000000000    0.9285933600000001    0.1367910499999998 Ti
   0.2500000000000000    0.2943699399999999    0.4710449799999999 O
   0.7500000000000000    0.7056300600000001    0.5289550200000002 O
   0.7500000000000000    0.7943699399999999    0.0289550200000001 O
   0.2500000000000000    0.2056300600000001    0.9710449799999998 O
   0.2500000000000000    0.6366248599999998    0.2677586799999999 O
   0.7500000000000000    0.3633751400000002    0.7322413200000001 O
   0.7500000000000000    0.1366248600000000    0.2322413200000001 O
   0.2500000000000000    0.8633751400000002    0.7677586799999999 O
