Ti3 O6
1.0
   2.6657202257067878   -4.6171628696881317    0.0000000000000000
   2.6657202257067878    4.6171628696881317    0.0000000000000000
   0.0000000000000000    0.0000000000000000    3.1315800000000000
Ti O
3 6
direct
   0.6666666666666666    0.3333333333333333    0.5000000000000000 Ti
   0.3333333333333333    0.6666666666666666    0.5000000000000000 Ti
   0.0000000000000000    0.0000000000000000    0.0000000000000000 Ti
   0.7373960000000002    0.7373960000000002    0.5000000000000000 O
   0.2626039999999998    0.0000000000000000    0.5000000000000000 O
   0.0000000000000000    0.2626039999999998    0.5000000000000000 O
   0.3982070000000000    0.3982070000000000    0.0000000000000000 O
   0.6017930000000000    0.0000000000000000    0.0000000000000000 O
   0.0000000000000000    0.6017930000000000    0.0000000000000000 O
