step 1000
           1
    10.592175    0.000000    0.000000
     0.000000   10.592175    0.000000
     0.000000    0.000000   10.592175
   Hf   O 
  34  68
Direct
   0.32345101  0.01322199  0.97499482
   0.72780674  0.48555156  0.58935959
   0.85315904  0.77828732  0.70218236
   0.22123320  0.74665331  0.26060439
   0.35591261  0.52213426  0.98498429
   0.68829188  0.99166693  0.24060425
   0.60360841  0.97863287  0.56399523
   0.72274490  0.58995608  0.96479280
   0.10790859  0.25085318  0.48206260
   0.37908677  0.04691748  0.32786096
   0.16886615  0.77798046  0.84492044
   0.09405358  0.09557636  0.18438810
   0.35939265  0.11888898  0.61678865
   0.52307111  0.72172042  0.35727477
   0.05148548  0.57722105  0.09376851
   0.04233143  0.09075612  0.76711064
   0.92414426  0.92059295  0.46218643
   0.51979999  0.72754227  0.70343212
   0.79333143  0.19544279  0.57762172
   0.56561463  0.24759432  0.09291906
   0.00987681  0.55107672  0.46622856
   0.28197777  0.48393654  0.66928161
   0.52629727  0.41397229  0.40814354
   0.55971972  0.34457056  0.80378930
   0.21924651  0.84704650  0.54290049
   0.72658287  0.94086003  0.91956859
   0.49719351  0.77805473  0.03178782
   0.85715863  0.36487629  0.30128954
   0.87198196  0.23414390  0.99784457
   0.23085258  0.40706472  0.28043250
   0.97638930  0.48626719  0.74874944
   0.24020210  0.26261755  0.85963236
   0.96362117  0.87073055  0.05423580
   0.78715409  0.67288776  0.27262346
   0.41114843  0.37428147  0.07560418
   0.13944625  0.68494776  0.47479929
   0.85976489  0.08678568  0.70008385
   0.53995475  0.87417948  0.19483774
   0.33956114  0.75553431  0.38276717
   0.04155522  0.65551211  0.78273288
   0.93464694  0.73164303  0.37811078
   0.37985449  0.30898863  0.73126937
   0.18609037  0.46445336  0.11947467
   0.62399001  0.75380727  0.88721491
   0.78057386  0.89331433  0.09631323
   0.20343853  0.46675261  0.86796381
   0.70448282  0.35519786  0.98963375
   0.00791388  0.86691171  0.63044707
   0.88794141  0.99400029  0.28676023
   0.40621040  0.93077275  0.66508389
   0.43756087  0.57440076  0.45571557
   0.99438490  0.74434430  0.17042292
   0.57109942  0.14661583  0.66658502
   0.25867026  0.37115627  0.51865497
   0.44595411  0.54608849  0.80527358
   0.68417552  0.65133844  0.69028704
   0.51257949  0.14945179  0.22570519
   0.86649042  0.73659238  0.93421539
   0.05625377  0.37240134  0.37128360
   0.33801976  0.80253438  0.92367612
   0.28520132  0.01552299  0.14901249
   0.55989688  0.38941854  0.62024834
   0.73058224  0.81892693  0.35443048
   0.51842657  0.96694759  0.39469509
   0.13373499  0.94605939  0.71689557
   0.37815531  0.70035237  0.14692450
   0.45784136  0.21620809  0.47546148
   0.14618431  0.92091396  0.98399505
   0.60331359  0.58070489  0.29318886
   0.95856938  0.26236070  0.86037810
   0.70364798  0.35695122  0.44729428
   0.96833016  0.39117579  0.59817951
   0.18879272  0.20968999  0.33488763
   0.15867297  0.67359478  0.01196658
   0.88107538  0.59237317  0.62441372
   0.54302753  0.57787499  0.97567433
   0.57856790  0.78059938  0.52989773
   0.18763267  0.59149634  0.28188896
   0.97789027  0.26645391  0.16850518
   0.15396730  0.15711237  0.99438907
   0.63771725  0.90683472  0.75810493
   0.48035867  0.20451144  0.93511444
   0.51327274  0.95070154  0.01097144
   0.77211954  0.90451485  0.60253390
   0.26206789  0.03107200  0.49239789
   0.79330763  0.38019859  0.68995416
   0.96157446  0.09784563  0.49739538
   0.87018247  0.50547406  0.17561381
   0.30009390  0.72998572  0.64741935
   0.68935519  0.12050647  0.04453864
   0.10773775  0.50853518  0.61568712
   0.82240499  0.52564048  0.42028818
   0.95690103  0.06309742  0.05594920
   0.41801795  0.41730884  0.26525779
   0.10912989  0.96200677  0.30847715
   0.92813924  0.49266658  0.92239983
   0.71609458  0.07181563  0.43291113
   0.72561641  0.69660769  0.10896387
   0.29348018  0.07301264  0.79293072
   0.92665441  0.91265296  0.83632889
   0.15685324  0.22878094  0.67648736
   0.69984545  0.26104388  0.20692357
