step 6000
           1
    10.592175    0.000000    0.000000
     0.000000   10.592175    0.000000
     0.000000    0.000000   10.592175
   Hf   O 
  34  68
Direct
   0.53456443  0.20069520  0.93337706
   0.71527122  0.73306061  0.59688896
   0.12756591  0.69331789  0.50989609
   0.25387285  0.63903503  0.21968644
   0.49032605  0.54275341  0.00084638
   0.70970410  0.04833958  0.20779581
   0.67952754  0.11347094  0.60920527
   0.86685411  0.67075252  0.93236728
   0.07209651  0.15523208  0.65141904
   0.40742392  0.98471759  0.10750271
   0.23757026  0.74491117  0.93293558
   0.02245319  0.19526867  0.23374162
   0.34284541  0.00626142  0.67898233
   0.20725202  0.39785978  0.50140943
   0.09351027  0.49029549  0.96283781
   0.96145053  0.86206359  0.72556383
   0.88623030  0.01742156  0.43280344
   0.39591241  0.68260095  0.66065817
   0.82667975  0.35803194  0.40320397
   0.78796341  0.38362430  0.03107056
   0.00250027  0.53580832  0.26845074
   0.30505731  0.30955036  0.81108495
   0.46472849  0.21845649  0.45319313
   0.64366956  0.43035649  0.73519913
   0.22302761  0.97840791  0.38436349
   0.61560656  0.84450450  0.87992903
   0.46400121  0.81197706  0.41714556
   0.56302518  0.53023871  0.36500891
   0.82747374  0.13515564  0.87169944
   0.32988707  0.30874405  0.18147343
   0.96400720  0.48343636  0.67802982
   0.18348833  0.07878708  0.94811242
   0.02615289  0.87501301  0.15728633
   0.69501481  0.73985821  0.20604454
   0.33193478  0.15552130  0.03285024
   0.55782687  0.57619335  0.58506412
   0.13850999  0.38318939  0.16731541
   0.35569890  0.75747386  0.07424070
   0.18172335  0.92127548  0.06925484
   0.35550121  0.36918886  0.37750469
   0.96548142  0.70120218  0.62602871
   0.46183874  0.70481440  0.85758907
   0.85234543  0.75925458  0.08620628
   0.47045546  0.16805013  0.25196853
   0.20272795  0.15505619  0.76120835
   0.21143857  0.92176155  0.85348339
   0.65145649  0.28266545  0.81715040
   0.47471835  0.08772437  0.60154894
   0.66260587  0.05534647  0.80631253
   0.38663469  0.63703811  0.47251253
   0.90063084  0.54210969  0.06098816
   0.99153646  0.55866704  0.83287133
   0.62325689  0.42387111  0.05114408
   0.34523326  0.88783586  0.53573449
   0.35465430  0.49237679  0.14172709
   0.59274022  0.07832807  0.06119569
   0.84934546  0.16444233  0.65800182
   0.80212068  0.40542004  0.62212765
   0.76341937  0.55082842  0.26969458
   0.55727670  0.85907964  0.17526359
   0.49450315  0.63794906  0.19867790
   0.43395988  0.10004739  0.83489057
   0.24567579  0.08618153  0.52297410
   0.80702456  0.91031230  0.63217443
   0.68830938  0.70352021  0.00865664
   0.12448505  0.63824549  0.07954454
   0.90585349  0.03731010  0.19021892
   0.20061301  0.15779125  0.22114686
   0.46075868  0.90017246  0.95304289
   0.38662241  0.95271345  0.28091185
   0.14919889  0.56589354  0.37463655
   0.10085545  0.33428416  0.66016548
   0.21428147  0.55545089  0.60356705
   0.06630103  0.31995998  0.40679427
   0.90469165  0.29491926  0.86727352
   0.26980287  0.55598372  0.87696464
   0.63095685  0.35932983  0.36501206
   0.02751539  0.71447909  0.27520729
   0.48787495  0.51527979  0.79791727
   0.78250773  0.15695863  0.41042124
   0.41555773  0.37813531  0.93473906
   0.00266003  0.03750378  0.79631620
   0.17243688  0.32344211  0.91999830
   0.80387633  0.91030456  0.31658854
   0.03538792  0.10037802  0.45848127
   0.23075788  0.74952711  0.69586478
   0.33712962  0.31933241  0.60052313
   0.05836761  0.14074468  0.04569769
   0.57209433  0.05832088  0.38297958
   0.88691426  0.34740229  0.23944071
   0.65235964  0.72956268  0.40418631
   0.05485550  0.93344717  0.33694223
   0.81896147  0.90378046  0.91414551
   0.53612993  0.83194628  0.64500713
   0.92990738  0.52628393  0.42922472
   0.07572965  0.90467579  0.55762584
   0.73783670  0.50026151  0.87768801
   0.02606103  0.76088414  0.88303045
   0.75091469  0.70725119  0.78035364
   0.78538440  0.15095650  0.04810730
   0.59986285  0.30471768  0.57639000
   0.25144191  0.77755127  0.35344348
