step 3000
           1
    10.592175    0.000000    0.000000
     0.000000   10.592175    0.000000
     0.000000    0.000000   10.592175
   Hf   O 
  34  68
Direct
   0.41943973  0.23625645  0.95179302
   0.77128985  0.64393859  0.59527427
   0.17627561  0.73158477  0.72603513
   0.14346576  0.65900768  0.21720804
   0.33298306  0.53810762  0.93757202
   0.66611441  0.10760857  0.23041896
   0.64090339  0.92204413  0.54452776
   0.84457117  0.67198251  0.91916827
   0.17099097  0.13665384  0.50688276
   0.34074765  0.02769146  0.22629838
   0.25122020  0.88123271  0.96912823
   0.95129199  0.20755433  0.25094838
   0.43643804  0.04478976  0.73090942
   0.36789113  0.53310181  0.38116170
   0.97307849  0.46143150  0.07897972
   0.95200595  0.97243763  0.78735529
   0.97951413  0.87648158  0.47457178
   0.48019772  0.73828475  0.71524295
   0.80350996  0.18194077  0.53530765
   0.60396837  0.47998483  0.04205723
   0.02545341  0.51883530  0.46517121
   0.27198312  0.35813258  0.67388044
   0.44867735  0.19736358  0.43763990
   0.66758002  0.40374350  0.72205622
   0.35471956  0.83454874  0.44434290
   0.66646252  0.90802439  0.94239587
   0.50926384  0.72636074  0.16559162
   0.65710660  0.45003631  0.34866645
   0.77437511  0.21167843  0.92482486
   0.31025696  0.34897531  0.19253673
   0.97558142  0.39985409  0.74064462
   0.11744767  0.18713251  0.96745070
   0.98215466  0.97373889  0.11551912
   0.79549274  0.77334160  0.25832924
   0.65456274  0.34384382  0.92687894
   0.21766849  0.43484384  0.34968254
   0.08506631  0.27828346  0.63184158
   0.45715556  0.91022998  0.09526228
   0.40854415  0.71469826  0.32854189
   0.37053774  0.37214522  0.50014067
   0.81813848  0.82400042  0.63365618
   0.31037154  0.08202599  0.89984865
   0.98597581  0.53707405  0.26418096
   0.52773522  0.89886671  0.79564799
   0.19335503  0.96398734  0.47270723
   0.17729681  0.53805110  0.74691491
   0.55212552  0.12891575  0.90500216
   0.80138919  0.02194138  0.62668462
   0.81838721  0.15066611  0.35131705
   0.28368270  0.16615287  0.33588122
   0.58395607  0.72644256  0.57695901
   0.34648385  0.73203039  0.91931594
   0.44231571  0.89211684  0.59776419
   0.27678943  0.86016786  0.77247174
   0.43873244  0.56807374  0.77966327
   0.68469606  0.74533774  0.85167508
   0.72483135  0.22831755  0.09795649
   0.13383755  0.72837066  0.41425841
   0.81350128  0.37896242  0.23779654
   0.09662059  0.84083122  0.08558252
   0.06946070  0.06229957  0.28493240
   0.45443712  0.33401095  0.77378397
   0.57621098  0.10042453  0.63711162
   0.71320272  0.77004793  0.07272696
   0.80773741  0.87410856  0.42545176
   0.15428315  0.50472292  0.06629715
   0.47657444  0.16148167  0.21722820
   0.07338991  0.30996782  0.16208938
   0.65381115  0.25632415  0.45383696
   0.07100883  0.00463802  0.94516939
   0.96402021  0.59274024  0.63167430
   0.84284912  0.38872919  0.56924570
   0.17902786  0.47964729  0.53299944
   0.94912597  0.17280645  0.81225247
   0.30133085  0.67867284  0.53862826
   0.57551426  0.47844598  0.56516879
   0.02816966  0.87773952  0.66210377
   0.77499938  0.59228781  0.40563922
   0.94946456  0.32962424  0.93420314
   0.98759556  0.31213594  0.39760948
   0.41667096  0.40750902  0.04166516
   0.23758640  0.33445584  0.88168843
   0.51668994  0.63872751  0.01336046
   0.31989524  0.57197466  0.19686317
   0.60854319  0.83662640  0.32965965
   0.97789269  0.53867224  0.87718255
   0.33247741  0.19224676  0.62329328
   0.79604084  0.53373532  0.04477373
   0.26069391  0.20238146  0.10359506
   0.92292031  0.12531949  0.00783465
   0.73306523  0.57775813  0.76873694
   0.54742804  0.57080291  0.25345502
   0.75201350  0.06550540  0.85227684
   0.45191737  0.36256497  0.31272949
   0.97006530  0.77165208  0.24619274
   0.07381303  0.75634473  0.86793941
   0.81173051  0.99653447  0.19774901
   0.86604214  0.88518312  0.95881452
   0.27043841  0.83726734  0.23984798
   0.77545328  0.27698758  0.69967636
   0.43617455  0.99204193  0.39119733
   0.99089038  0.06538492  0.49159648
