step 2000
           1
    10.592175    0.000000    0.000000
     0.000000   10.592175    0.000000
     0.000000    0.000000   10.592175
   Hf   O 
  34  68
Direct
   0.42664010  0.13070782  0.93836403
   0.78617590  0.73377665  0.56768585
   0.09000045  0.65848082  0.76228037
   0.17733492  0.71637551  0.16982364
   0.32619923  0.44909368  0.99687462
   0.70551547  0.09156239  0.27378795
   0.52375427  0.88611450  0.49212942
   0.73387771  0.61243140  0.92818131
   0.06809238  0.24360730  0.54541984
   0.37677626  0.02640578  0.22867960
   0.25558045  0.87156804  0.91244500
   0.13750318  0.15788372  0.11729791
   0.28512512  0.05813421  0.60878464
   0.59127407  0.50192776  0.51348483
   0.99466442  0.50268549  0.09849263
   0.00971717  0.02433959  0.80801680
   0.02207118  0.97840945  0.36874140
   0.48039017  0.68914558  0.79379237
   0.82376198  0.09972159  0.53368938
   0.61169185  0.39047842  0.17749681
   0.01795778  0.63563817  0.45098656
   0.34946453  0.40401022  0.68607721
   0.51143390  0.23564458  0.44977852
   0.61624476  0.32064362  0.82298613
   0.28340430  0.77648305  0.47102842
   0.63531055  0.95211711  0.83978801
   0.50999879  0.77945722  0.03830473
   0.82457512  0.41654649  0.33550087
   0.84205640  0.19440179  0.04318839
   0.24005172  0.44888373  0.32790804
   0.83968776  0.38007908  0.63946451
   0.05084999  0.32671492  0.85086854
   0.95211311  0.83471039  0.01814904
   0.71790067  0.73860724  0.26792231
   0.63401555  0.31177103  0.01869853
   0.06972690  0.79692457  0.34367156
   0.91911049  0.20320941  0.85189075
   0.76485708  0.05149942  0.06001897
   0.40788230  0.83497042  0.35120381
   0.43631671  0.56899186  0.60908083
   0.89409389  0.70638058  0.90126892
   0.12474165  0.04493830  0.93786257
   0.17627425  0.54400445  0.09888027
   0.11838221  0.88171467  0.76977527
   0.94203152  0.84263172  0.57547054
   0.24010258  0.46908221  0.80247569
   0.59228004  0.11688395  0.80608928
   0.61199359  0.80412515  0.70483058
   0.85725205  0.00744896  0.34350882
   0.35755922  0.17096509  0.33957466
   0.57274154  0.69687235  0.46701136
   0.29567152  0.72203095  0.77323019
   0.66409489  0.08735824  0.44179062
   0.11702746  0.15057670  0.69397360
   0.36362139  0.67489676  0.00289898
   0.46866342  0.87770721  0.86670207
   0.56113756  0.23274149  0.25634576
   0.17034383  0.60878580  0.57145862
   0.96745948  0.48610167  0.27232832
   0.33406118  0.89109218  0.08915269
   0.17014586  0.00554846  0.22654426
   0.50411747  0.36479103  0.63075567
   0.71052440  0.89693517  0.54009925
   0.64665039  0.91409101  0.31826855
   0.98406609  0.03133057  0.54707047
   0.23526460  0.63157944  0.32554333
   0.46292391  0.06242648  0.52077739
   0.22392261  0.29228024  0.97557325
   0.70614366  0.51471405  0.65532595
   0.96199935  0.12197116  0.20582287
   0.93202676  0.64110747  0.63849155
   0.90100930  0.24653389  0.48511217
   0.27520561  0.23806632  0.58641941
   0.12275645  0.77795712  0.98280367
   0.10149058  0.43588690  0.44860665
   0.51194585  0.50970043  0.83360552
   0.39299350  0.83748160  0.62352444
   0.85089115  0.70770137  0.39824100
   0.99458670  0.33803666  0.03741542
   0.16756167  0.29695371  0.26464460
   0.41830801  0.45927453  0.15432255
   0.44965266  0.32676148  0.94189158
   0.58931805  0.65460486  0.13249056
   0.51539271  0.03100784  0.05900901
   0.11570110  0.13656532  0.40351841
   0.78291406  0.45226044  0.82188336
   0.00409583  0.38122788  0.67157736
   0.77813448  0.50415192  0.08731938
   0.30461158  0.11612124  0.08437486
   0.82998624  0.29372305  0.20528659
   0.85122646  0.49234785  0.49201318
   0.67154259  0.51962597  0.31472280
   0.84299694  0.94672239  0.82187255
   0.41782677  0.40387929  0.41416352
   0.97792984  0.70981667  0.15459322
   0.03954356  0.53538144  0.88891621
   0.75661494  0.80765327  0.10714376
   0.63150383  0.76271827  0.91166796
   0.28577929  0.07597448  0.80700642
   0.72622033  0.22481630  0.67074506
   0.20465774  0.93523223  0.50722742
   0.66765686  0.32827570  0.42968325
