k-point density of [20, 20, 20]/[a, b, c]
0
Gamma
5.0 5.0 7.0
0.0 0.0 0.0
