O  Ru
 1.0000000000000000
     4.4825003150000002    0.0000000000000000    0.0000000000000003
     0.0000000000000007    4.4825003150000002    0.0000000000000003
     0.0000000000000000    0.0000000000000000    3.1113414000000001
 O   Ru 
   4   2
Cartesian
  0.8721055790857203  3.6103947359142805  1.5556707000000003
  3.6103947359142805  0.8721055790857197  1.5556707000000003
  3.1133557365857203  3.1133557365857198  0.0000000000000004
  1.3691445784142811  1.3691445784142806  0.0000000000000002
  2.2412501575000006  2.2412501575000001  1.5556707000000003
  0.0000000000000000  0.0000000000000000  0.0000000000000000
