step 5000
           1
    10.592175    0.000000    0.000000
     0.000000   10.592175    0.000000
     0.000000    0.000000   10.592175
   Hf   O 
  34  68
Direct
   0.47818434  0.25927994  0.01934147
   0.79620128  0.61590645  0.51481488
   0.16760188  0.65975198  0.70732145
   0.23889660  0.74251666  0.18185748
   0.47363686  0.54164428  0.03334479
   0.65220560  0.04393025  0.20773789
   0.64434004  0.95587522  0.52839032
   0.79769909  0.76739245  0.83655454
   0.10740781  0.21388051  0.43768338
   0.32608363  0.03523405  0.19953654
   0.21163032  0.90345057  0.94672318
   0.90162201  0.24907213  0.18395341
   0.28628265  0.11592510  0.77450933
   0.39493497  0.51417572  0.46960510
   0.04421726  0.59039083  0.99009353
   0.01178797  0.98257667  0.67828890
   0.96018202  0.88865230  0.40497023
   0.53870172  0.68937420  0.71593606
   0.80213987  0.23330275  0.52841081
   0.77764476  0.45983669  0.97819982
   0.09443361  0.52849783  0.45242100
   0.29481481  0.39729456  0.79091416
   0.44254790  0.18471168  0.45421595
   0.58542534  0.37326607  0.69474163
   0.24556013  0.87324384  0.48853945
   0.54757630  0.85385251  0.98001109
   0.54663838  0.74530724  0.31972698
   0.59636709  0.38728688  0.29524428
   0.76710738  0.06911610  0.82856799
   0.24699591  0.41895556  0.19301187
   0.97465644  0.37816764  0.71030504
   0.10500604  0.19462737  0.98847836
   0.93160290  0.88500970  0.06499379
   0.85290780  0.60836745  0.22654286
   0.44695647  0.21357596  0.80567033
   0.85518300  0.39623595  0.30689340
   0.08709192  0.40100161  0.32753437
   0.34507152  0.84985153  0.04669741
   0.04360986  0.00347456  0.03330022
   0.48880215  0.16924713  0.28207509
   0.19042241  0.87345607  0.67904658
   0.36900929  0.88559576  0.81752859
   0.90558686  0.78822128  0.21715486
   0.68009503  0.53686991  0.20682772
   0.14480207  0.00403777  0.81697367
   0.08743971  0.77586016  0.03874636
   0.63459631  0.14070065  0.96481794
   0.38468846  0.82939132  0.29650683
   0.43565898  0.00496671  0.54886975
   0.28636877  0.09114260  0.36369319
   0.86403807  0.47307900  0.83333447
   0.84750173  0.67162078  0.97273071
   0.55016048  0.67491294  0.90888098
   0.35637271  0.67410103  0.62004492
   0.44446678  0.40367627  0.15454078
   0.72321776  0.84528390  0.07252595
   0.73550767  0.73751884  0.35026494
   0.90685138  0.06653734  0.46812565
   0.91930242  0.49650819  0.09777639
   0.52212810  0.68169746  0.13252726
   0.53581115  0.56124144  0.36225344
   0.28560756  0.10300516  0.97076584
   0.39841585  0.37663419  0.63477760
   0.93221525  0.61038900  0.38489520
   0.63431793  0.89983933  0.80424515
   0.08844821  0.60418664  0.18045820
   0.65800375  0.27593973  0.15462831
   0.09656713  0.35609396  0.05893614
   0.49664642  0.01865867  0.11844492
   0.26176874  0.20284710  0.16108555
   0.28596848  0.57120976  0.33537395
   0.97123231  0.29224227  0.52679938
   0.21006602  0.47965516  0.59134810
   0.96674536  0.13533836  0.74225872
   0.11447380  0.49999695  0.83342712
   0.32339234  0.56349140  0.80583826
   0.68855160  0.10656930  0.43630159
   0.15808695  0.72131625  0.41899549
   0.60644121  0.40332051  0.95333680
   0.84930014  0.04421245  0.17493897
   0.35991571  0.39075622  0.97083716
   0.12604808  0.26816705  0.80051698
   0.30729349  0.58938798  0.08442076
   0.58089220  0.77092452  0.52564542
   0.14557258  0.92023538  0.24329472
   0.04621221  0.74483222  0.81524941
   0.54901471  0.54969990  0.62584330
   0.87513453  0.24155975  0.99865510
   0.61598096  0.91653058  0.32435314
   0.99602170  0.16755314  0.29983817
   0.55106245  0.34205890  0.47047065
   0.10394445  0.98402587  0.50214342
   0.78171496  0.98818300  0.66056579
   0.74034519  0.64792267  0.71661868
   0.00307769  0.54804230  0.63182800
   0.23582715  0.15312758  0.60456492
   0.58890831  0.20366376  0.62588245
   0.89421344  0.92252653  0.86314624
   0.93106345  0.81816530  0.57808891
   0.74640257  0.27816586  0.74989580
   0.76874918  0.40951329  0.58062533
   0.32657964  0.33871513  0.40662401
