Generated by aRPaCa
1.0
   10.592107      0.000000      0.000000
   0.000000      10.592107      0.000000
   0.000000      0.000000      10.592107
   Hf   O
   34   68
Cartesian
    2.723921    1.087921   1.109921
    8.192921    1.767921   2.616921
    3.890921    2.241921   9.537921
    7.321921    3.077921   1.079921
    8.076921    3.627921   3.782921
    1.106921    2.551921   3.682921
    4.486921    8.111921   1.104921
    3.855921    4.266921   8.686921
    9.398921    1.427921   6.965921
    7.148921    5.403921   1.103921
    9.497921    3.861921   9.487921
    1.053921    9.501921   7.840921
    4.778921    5.615921   3.263921
    5.419921    5.631921   9.424921
    5.852921    7.952921   6.776921
    5.951921    2.755921   7.445921
    1.097921    6.489921   5.328921
    7.460921    9.487921   9.165921
    9.503921    4.827921   4.948921
    1.056921    6.406921   3.132921
    4.967921    3.356921   5.573921
    1.128921    1.718921   7.411921
    6.437921    1.105921   1.488921
    5.284921    6.269921   5.479921
    1.067921    3.906921   7.191921
    4.195921    8.970921   5.751921
    1.476921    6.003921   1.013921
    1.441921    7.553921   9.508921
    1.102921    4.310921   5.029921
    9.338921    5.579921   1.143921
    1.104921    1.093921   9.518921
    4.365921    6.702921   7.806921
    8.277921    8.840921   4.873921
    6.218921    9.531921   5.108921
    1.559921    8.289921   4.149921
    5.285921    8.892921   3.039921
    7.332921    4.891921   6.264921
    9.499921    3.312921   1.266921
    4.545921    5.912921   1.101921
    5.863921    2.844921   3.630921
    9.521921    9.080921   6.671921
    3.141921    6.158921   9.549921
    1.919921    3.076921   9.034921
    4.020921    7.477921   4.147921
    4.766921    1.100921   2.910921
    2.698921    5.067921   3.721921
    6.279921    7.663921   9.489921
    1.091921    2.562921   1.095921
    2.945921    3.138921   4.736921
    9.485921    7.009921   4.679921
    3.514921    4.995921   5.762921
    1.087921    1.074921   5.310921
    9.491921    7.131921   7.690921
    7.737921    7.038921   6.009921
    6.775921    5.361921   4.144921
    2.958921    4.392921   1.201921
    7.365921    1.102921   7.738921
    5.078921    9.526921   8.102921
    3.122921    3.170921   6.925921
    9.491921    2.636921   5.141921
    9.546921    1.073921   1.033921
    2.429921    9.518921   9.554921
    7.731921    2.561921   9.483921
    8.287921    6.766921   9.495921
    6.559921    7.548921   4.226921
    1.144921    8.146921   1.379921
    2.878921    1.054921   4.036921
    1.097921    7.364921   7.345921
    7.435921    9.460921   2.938921
    3.087921    1.085921   6.225921
    3.104921    8.678921   7.637921
    7.387921    9.514921   6.969921
    3.004921    2.696921   2.581921
    6.211921    9.484921   1.112921
    4.599921    1.063921   7.822921
    6.035921    1.184921   9.487921
    7.492921    4.731921   9.242921
    5.542921    4.106921   1.861921
    4.552921    2.300921   1.089921
    7.870921    8.018921   1.218921
    1.104921    4.334921   2.396921
    9.407921    5.018921   7.137921
    6.118921    7.053921   2.130921
    9.492921    9.498921   1.090921
    3.006921    6.948921   2.269921
    9.380921    8.440921   3.013921
    4.128921    8.123921   9.502921
    2.073921    9.525921   5.894921
    3.325921    9.534921   3.809921
    5.333921    1.212921   5.759921
    5.723921    3.455921   9.516921
    9.485921    1.271921   9.157921
    6.809921    6.292921   7.855921
    1.208921    5.123921   9.377921
    6.948921    1.045921   4.277921
    2.402921    5.615921   7.556921
    8.120921    6.639921   2.970921
    7.097921    2.817921   5.571921
    5.321921    4.842921   7.152921
    2.866921    9.487921   1.658921
    8.167921    3.232921   7.440921
    3.057921    7.117921   6.090921
