k-point density of [40, 40, 1]/[a, b, c]
0
Gamma
7.0 13.0 1.0
0.0 0.0 0.0
