Generated by aRPaCa
1.0
   14.211794      0.000000      0.000000
   0.000000      14.211794      0.000000
   0.000000      0.000000      14.211794
   Hf   O
   34   68
Cartesian
    3.291118    1.122118   5.996118
    11.188118    3.429118   3.252118
    4.158118    2.428118   13.070118
    7.652118    5.630118   2.362118
    7.710118    6.082118   4.577118
    1.125118    3.016118   5.661118
    7.041118    11.503118   2.602118
    7.854118    2.015118   10.321118
    10.991118    2.689118   7.896118
    9.438118    7.393118   2.227118
    13.072118    5.992118   13.070118
    1.792118    13.096118   10.905118
    4.392118    11.341118   5.668118
    7.578118    8.082118   12.056118
    7.557118    11.194118   9.029118
    7.712118    3.221118   12.188118
    1.823118    7.941118   7.602118
    7.173118    13.091118   10.221118
    7.343118    7.588118   9.130118
    1.248118    7.786118   5.297118
    7.080118    6.303118   7.280118
    2.948118    3.658118   6.996118
    7.460118    1.318118   3.490118
    5.494118    3.737118   7.372118
    2.185118    5.464118   8.138118
    4.187118    9.170118   6.960118
    1.526118    10.092118   1.132118
    2.420118    8.485118   12.786118
    1.124118    5.480118   6.211118
    11.769118    6.978118   1.138118
    1.374118    1.108118   12.060118
    4.874118    12.280118   11.301118
    11.075118    10.918118   6.574118
    6.314118    13.070118   5.059118
    1.542118    10.528118   6.222118
    5.079118    10.268118   1.924118
    10.572118    5.971118   7.411118
    11.971118    4.790118   1.660118
    6.673118    8.028118   1.125118
    7.851118    2.614118   6.317118
    13.084118    12.636118   8.713118
    5.641118    7.864118   13.075118
    1.812118    3.347118   12.431118
    6.072118    7.653118   4.366118
    4.395118    2.086118   1.262118
    3.574118    7.103118   4.965118
    7.001118    10.313118   13.087118
    2.837118    4.634118   1.415118
    4.019118    5.576118   6.931118
    13.081118    10.007118   5.369118
    4.292118    7.464118   8.954118
    1.108118    2.197118   7.707118
    12.198118    9.730118   11.692118
    11.292118    8.591118   6.895118
    7.117118    8.711118   6.626118
    4.463118    7.119118   1.146118
    9.863118    1.382118   11.045118
    9.070118    11.762118   12.440118
    3.700118    5.540118   13.070118
    12.555118    3.610118   5.993118
    13.073118    1.141118   3.516118
    2.135118    11.630118   12.536118
    10.221118    3.044118   13.073118
    10.166118    9.897118   13.091118
    8.867118    10.026118   7.005118
    3.273118    12.015118   2.004118
    5.624118    1.122118   4.685118
    1.101118    9.379118   11.274118
    8.889118    12.651118   4.766118
    2.859118    1.112118   10.425118
    2.428118    10.795118   10.252118
    8.802118    12.554118   7.827118
    2.938118    3.711118   4.221118
    7.152118    13.102118   1.106118
    5.699118    1.784118   10.909118
    8.019118    1.049118   12.415118
    11.353118    6.321118   11.684118
    5.401118    5.556118   3.995118
    5.021118    4.717118   1.135118
    9.454118    11.825118   1.753118
    1.123118    4.538118   3.297118
    11.479118    7.062118   9.366118
    8.364118    9.893118   1.682118
    11.803118    12.749118   1.666118
    1.386118    7.704118   2.437118
    12.191118    12.061118   3.751118
    4.455118    9.555118   12.316118
    2.683118    13.074118   6.834118
    3.395118    13.045118   4.657118
    6.482118    1.104118   7.135118
    6.070118    4.669118   12.992118
    12.884118    2.349118   12.842118
    9.846118    9.004118   8.739118
    1.501118    6.320118   13.074118
    9.882118    3.619118   5.599118
    1.515118    6.570118   10.373118
    9.966118    8.988118   4.704118
    8.784118    5.668118   8.744118
    4.526118    3.880118   10.931118
    5.061118    13.023118   3.209118
    9.807118    4.566118   11.057118
    5.382118    9.104118   10.266118
