O  Ru Ti                                
   1.00000000000000     
     6.3302884611997978    0.0000000000000000    0.0000000000000000
     0.0000000000000000    3.1100192393607511    0.0000000000000000
     0.0000000000000000    0.0000000000000000   38.6375032856769636
   O    Ru   Ti
    48    10    14
Direct
  0.5000000000000000  0.0000000000000000 -0.0024772808705041
  0.3058823193995287  0.5000000000000000  0.9466886724658831
  0.0000000000000000  0.0000000000000000  0.4126652343880326
  0.8052118404427030  0.5000000000000000  0.8627181043523426
  0.0000000000000000  0.0000000000000000  0.2461657922783834
  0.5000000000000000  0.0000000000000000  0.1633295485021604
  0.1939866656281305  0.5000000000000000  0.0299314280530389
  0.0000000000000000  0.0000000000000000  0.1450010641487077
  0.3058607848017407  0.5000000000000000  0.1126884910910290
  0.8060133343718696  0.5000000000000000  0.0299314280530389
  0.6941392151982593  0.5000000000000000  0.1126884910910290
  0.0000000000000000  0.0000000000000000  0.0803768970842574
  0.5000000000000000  0.0000000000000000  0.2278373079249307
  0.6941392151982593  0.5000000000000000  0.2784783653360624
  0.3058607848017407  0.5000000000000000  0.2784783653360624
  0.0000000000000000  0.0000000000000000  0.3107899593428409
  0.5000000000000000  0.0000000000000000  0.3289677883643958
  0.1939866656281305  0.5000000000000000  0.3612354283740593
  0.8060133343718696  0.5000000000000000  0.3612354283740593
  0.5000000000000000  0.0000000000000000  0.3936441372976023
  0.8058782390677554  0.5000000000000000  0.1955834282135456
  0.1941217609322446  0.5000000000000000  0.1955834282135456
  0.5000000000000000  0.0000000000000000  0.5611746143459727
  0.3051703658892331  0.5000000000000000  0.6119649771970133
  0.5000000000000000  0.0000000000000000  0.0621990680626954
  0.8052118404427030  0.5000000000000000  0.5284487520747556
  0.1947881595572968  0.5000000000000000  0.5284487520747556
  0.6941176806004714  0.5000000000000000  0.9466886724658831
  0.0000000000000000  0.0000000000000000  0.9785016220390659
  0.0000000000000000  0.0000000000000000  0.9134735084893936
  0.1947881595572968  0.5000000000000000  0.8627181043523426
  0.5000000000000000  0.0000000000000000  0.8953392642004940
  0.5000000000000000  0.0000000000000000  0.8299922420811255
  0.3051703658892331  0.5000000000000000  0.7792018792300850
  0.6948296341107668  0.5000000000000000  0.7792018792300850
  0.0000000000000000  0.0000000000000000  0.8118229978251701
  0.8053882960898670  0.5000000000000000  0.6955834282135456
  0.0000000000000000  0.0000000000000000  0.7464807643922166
  0.5000000000000000  0.0000000000000000  0.6628851558304537
  0.1946117039101332  0.5000000000000000  0.6955834282135456
  0.0000000000000000  0.0000000000000000  0.4776933479377048
  0.6948296341107668  0.5000000000000000  0.6119649771970133
  0.6941176806004714  0.5000000000000000  0.4444781839612151
  0.0000000000000000  0.0000000000000000  0.6446860920348817
  0.3058823193995287  0.5000000000000000  0.4444781839612151
  0.5000000000000000  0.0000000000000000  0.4958275922266042
  0.0000000000000000  0.0000000000000000  0.5793438586019211
  0.5000000000000000  0.0000000000000000  0.7282817005966374
  0.0000000000000000  0.0000000000000000  0.1955834282135456
  0.5000000000000000  0.0000000000000000  0.1126204497081745
  0.5000000000000000  0.5000000000000000  0.3610475851954307
  0.5000000000000000  0.5000000000000000  0.1955834282135456
  0.0000000000000000  0.5000000000000000  0.1126341058049206
  0.5000000000000000  0.5000000000000000  0.0301192712316674
  0.0000000000000000  0.5000000000000000  0.2785327506221706
  0.5000000000000000  0.0000000000000000  0.2785464067189167
  0.0000000000000000  0.0000000000000000  0.3611175053534168
  0.0000000000000000  0.0000000000000000  0.0300493510736813
  0.5000000000000000  0.0000000000000000  0.4449581124035666
  0.0000000000000000  0.5000000000000000  0.6120872334820096
  0.0000000000000000  0.0000000000000000  0.8625729535732010
  0.0000000000000000  0.5000000000000000  0.4451785408523940
  0.0000000000000000  0.5000000000000000  0.7790796229450887
  0.5000000000000000  0.5000000000000000  0.8627514818459573
  0.0000000000000000  0.0000000000000000  0.6955834282135456
  0.5000000000000000  0.5000000000000000  0.6955834282135456
  0.0000000000000000  0.0000000000000000  0.5285939028538973
  0.0000000000000000  0.5000000000000000  0.9459883155747043
  0.5000000000000000  0.0000000000000000  0.6119458768842810
  0.5000000000000000  0.0000000000000000  0.7792209795428172
  0.5000000000000000  0.5000000000000000  0.5284153745811410
  0.5000000000000000  0.0000000000000000  0.9462087440235319
 
  0.00000000E+00  0.00000000E+00  0.00000000E+00
  0.00000000E+00  0.00000000E+00  0.00000000E+00
  0.00000000E+00  0.00000000E+00  0.00000000E+00
  0.00000000E+00  0.00000000E+00  0.00000000E+00
  0.00000000E+00  0.00000000E+00  0.00000000E+00
  0.00000000E+00  0.00000000E+00  0.00000000E+00
  0.00000000E+00  0.00000000E+00  0.00000000E+00
  0.00000000E+00  0.00000000E+00  0.00000000E+00
  0.00000000E+00  0.00000000E+00  0.00000000E+00
  0.00000000E+00  0.00000000E+00  0.00000000E+00
  0.00000000E+00  0.00000000E+00  0.00000000E+00
  0.00000000E+00  0.00000000E+00  0.00000000E+00
  0.00000000E+00  0.00000000E+00  0.00000000E+00
  0.00000000E+00  0.00000000E+00  0.00000000E+00
  0.00000000E+00  0.00000000E+00  0.00000000E+00
  0.00000000E+00  0.00000000E+00  0.00000000E+00
  0.00000000E+00  0.00000000E+00  0.00000000E+00
  0.00000000E+00  0.00000000E+00  0.00000000E+00
  0.00000000E+00  0.00000000E+00  0.00000000E+00
  0.00000000E+00  0.00000000E+00  0.00000000E+00
  0.00000000E+00  0.00000000E+00  0.00000000E+00
  0.00000000E+00  0.00000000E+00  0.00000000E+00
  0.00000000E+00  0.00000000E+00  0.00000000E+00
  0.00000000E+00  0.00000000E+00  0.00000000E+00
  0.00000000E+00  0.00000000E+00  0.00000000E+00
  0.00000000E+00  0.00000000E+00  0.00000000E+00
  0.00000000E+00  0.00000000E+00  0.00000000E+00
  0.00000000E+00  0.00000000E+00  0.00000000E+00
  0.00000000E+00  0.00000000E+00  0.00000000E+00
  0.00000000E+00  0.00000000E+00  0.00000000E+00
  0.00000000E+00  0.00000000E+00  0.00000000E+00
  0.00000000E+00  0.00000000E+00  0.00000000E+00
  0.00000000E+00  0.00000000E+00  0.00000000E+00
  0.00000000E+00  0.00000000E+00  0.00000000E+00
  0.00000000E+00  0.00000000E+00  0.00000000E+00
  0.00000000E+00  0.00000000E+00  0.00000000E+00
  0.00000000E+00  0.00000000E+00  0.00000000E+00
  0.00000000E+00  0.00000000E+00  0.00000000E+00
  0.00000000E+00  0.00000000E+00  0.00000000E+00
  0.00000000E+00  0.00000000E+00  0.00000000E+00
  0.00000000E+00  0.00000000E+00  0.00000000E+00
  0.00000000E+00  0.00000000E+00  0.00000000E+00
  0.00000000E+00  0.00000000E+00  0.00000000E+00
  0.00000000E+00  0.00000000E+00  0.00000000E+00
  0.00000000E+00  0.00000000E+00  0.00000000E+00
  0.00000000E+00  0.00000000E+00  0.00000000E+00
  0.00000000E+00  0.00000000E+00  0.00000000E+00
  0.00000000E+00  0.00000000E+00  0.00000000E+00
  0.00000000E+00  0.00000000E+00  0.00000000E+00
  0.00000000E+00  0.00000000E+00  0.00000000E+00
  0.00000000E+00  0.00000000E+00  0.00000000E+00
  0.00000000E+00  0.00000000E+00  0.00000000E+00
  0.00000000E+00  0.00000000E+00  0.00000000E+00
  0.00000000E+00  0.00000000E+00  0.00000000E+00
  0.00000000E+00  0.00000000E+00  0.00000000E+00
  0.00000000E+00  0.00000000E+00  0.00000000E+00
  0.00000000E+00  0.00000000E+00  0.00000000E+00
  0.00000000E+00  0.00000000E+00  0.00000000E+00
  0.00000000E+00  0.00000000E+00  0.00000000E+00
  0.00000000E+00  0.00000000E+00  0.00000000E+00
  0.00000000E+00  0.00000000E+00  0.00000000E+00
  0.00000000E+00  0.00000000E+00  0.00000000E+00
  0.00000000E+00  0.00000000E+00  0.00000000E+00
  0.00000000E+00  0.00000000E+00  0.00000000E+00
  0.00000000E+00  0.00000000E+00  0.00000000E+00
  0.00000000E+00  0.00000000E+00  0.00000000E+00
  0.00000000E+00  0.00000000E+00  0.00000000E+00
  0.00000000E+00  0.00000000E+00  0.00000000E+00
  0.00000000E+00  0.00000000E+00  0.00000000E+00
  0.00000000E+00  0.00000000E+00  0.00000000E+00
  0.00000000E+00  0.00000000E+00  0.00000000E+00
  0.00000000E+00  0.00000000E+00  0.00000000E+00
