k-point density of [20, 20, 1]/[a, b, c]
0
Gamma
4 7 1
0.0 0.0 0.0
