k-point density of [40, 40, 40]/[a, b, c]
0
Gamma
9.0 9.0 14.0
0.0 0.0 0.0
