step 7000
           1
    10.592175    0.000000    0.000000
     0.000000   10.592175    0.000000
     0.000000    0.000000   10.592175
   Hf   O 
  34  68
Direct
   0.55541902  0.13023366  0.93512892
   0.69609380  0.73152432  0.58009451
   0.20283011  0.71690466  0.44659093
   0.27489799  0.60487927  0.14189199
   0.60168733  0.59652105  0.04948973
   0.60530802  0.13718296  0.30832265
   0.68151567  0.08445801  0.66375952
   0.85218847  0.66892756  0.91968149
   0.02616402  0.19865120  0.67043540
   0.37126643  0.95338247  0.14026539
   0.21580598  0.69465642  0.84709238
   0.95636046  0.17230240  0.29432992
   0.35478886  0.91348060  0.59555924
   0.19401831  0.38393489  0.42539194
   0.08937786  0.37105943  0.02999243
   0.98461870  0.86936882  0.69640671
   0.92008554  0.90016308  0.42290621
   0.44192608  0.60192281  0.61565328
   0.82169159  0.35800374  0.47543326
   0.76876723  0.36543736  0.08069813
   0.91493438  0.58133644  0.25148768
   0.31413344  0.37318549  0.85421754
   0.38163569  0.27185751  0.56318650
   0.80552643  0.40536266  0.77709513
   0.24278209  0.07518243  0.38871463
   0.49056335  0.81413681  0.83693927
   0.48590274  0.79439139  0.34660933
   0.53202623  0.47416538  0.33538425
   0.85366133  0.08398898  0.94777307
   0.34573982  0.28812958  0.14583313
   0.00549516  0.55439933  0.60458880
   0.15692599  0.10143070  0.89917585
   0.05614474  0.84791739  0.09289406
   0.72795935  0.87038882  0.16286829
   0.52024425  0.91539339  0.00939392
   0.56911232  0.63988331  0.42355361
   0.19662067  0.20752961  0.04602431
   0.38156665  0.70615744  0.98704855
   0.27418903  0.80388769  0.17881483
   0.37184251  0.73825457  0.51454256
   0.20600082  0.82140637  0.69859995
   0.21454067  0.52147343  0.77152398
   0.91515292  0.77102184  0.17064131
   0.40794335  0.43178819  0.47065830
   0.27874168  0.18414810  0.76574124
   0.62410960  0.51660894  0.63221173
   0.68584276  0.53099038  0.88442004
   0.37287516  0.10179496  0.54545411
   0.55276265  0.19614449  0.75697030
   0.34270106  0.63532305  0.31984892
   0.95618506  0.39379022  0.16309908
   0.88851008  0.36235974  0.95385413
   0.50421190  0.15512694  0.15578881
   0.37401191  0.24850083  0.35651758
   0.63729467  0.44042534  0.18825728
   0.26466487  0.11786274  0.19267558
   0.10684755  0.04296603  0.59494336
   0.79124986  0.75462901  0.74891146
   0.95177932  0.16728947  0.06798664
   0.40064526  0.94230761  0.31218412
   0.56429806  0.68544011  0.17779826
   0.67419224  0.27298368  0.94156049
   0.18125342  0.30610687  0.60312116
   0.91145461  0.18939104  0.48359403
   0.63362905  0.93115202  0.31427152
   0.81331651  0.54499630  0.09325670
   0.77264564  0.25308918  0.27507789
   0.39118637  0.46025886  0.14869370
   0.43006113  0.98115294  0.76989432
   0.05547043  0.99603309  0.24573080
   0.81116852  0.76787736  0.35965857
   0.08035694  0.29184069  0.83989809
   0.17439389  0.53320263  0.54181380
   0.09308716  0.61937424  0.33317776
   0.19387039  0.40486782  0.23216563
   0.82381880  0.18315224  0.76838468
   0.76823739  0.51141792  0.32029046
   0.83532496  0.91056813  0.59132879
   0.41180410  0.22743173  0.97108781
   0.93355209  0.34659279  0.65109401
   0.27457255  0.47336039  0.01589088
   0.69339493  0.98917234  0.84154658
   0.93450286  0.53914257  0.80924098
   0.92516759  0.90457696  0.96474076
   0.99467727  0.05645266  0.79738765
   0.37320895  0.67554655  0.75766427
   0.43573413  0.39630122  0.73947385
   0.18996473  0.91773852  0.94869437
   0.61193325  0.10803044  0.51251281
   0.98273740  0.43251296  0.43867744
   0.85862251  0.98039774  0.28207767
   0.11339843  0.22416559  0.38594738
   0.02814135  0.75565111  0.82634187
   0.52556791  0.88941340  0.50909169
   0.82160495  0.57166347  0.57185170
   0.02863307  0.75575772  0.53100309
   0.69492749  0.76363516  0.99816954
   0.13634421  0.68215061  0.03791633
   0.57559496  0.72754744  0.70340922
   0.74570441  0.04165494  0.10356507
   0.62817887  0.31305371  0.42908765
   0.22510857  0.88538944  0.42894079
