step 8000
           1
    10.592175    0.000000    0.000000
     0.000000   10.592175    0.000000
     0.000000    0.000000   10.592175
   Hf   O 
  34  68
Direct
   0.53137718  0.25456100  0.74795939
   0.64527299  0.83093716  0.77855516
   0.30324146  0.57663098  0.42663870
   0.11684288  0.61807310  0.21284702
   0.59164500  0.54603091  0.93943763
   0.52404212  0.12080581  0.32683277
   0.68481251  0.10809907  0.59682013
   0.91237941  0.58797935  0.92713033
   0.19142582  0.13723778  0.68561027
   0.32971463  0.83205010  0.26023700
   0.32260887  0.72090671  0.90164651
   0.84827078  0.10010932  0.21168924
   0.31978556  0.87858249  0.62100529
   0.03084094  0.41169847  0.48050721
   0.10798665  0.26854202  0.01388206
   0.06187743  0.75892171  0.67501439
   0.99066002  0.01413735  0.48317737
   0.51390341  0.57064420  0.67139373
   0.72098760  0.34460132  0.44327624
   0.66646665  0.27188912  0.07076833
   0.85146471  0.46944214  0.18890944
   0.19499527  0.46344903  0.79119717
   0.35215026  0.30077101  0.48804942
   0.87603632  0.30880532  0.76253152
   0.19883176  0.13065429  0.30144887
   0.58279956  0.99221024  0.07301847
   0.55401521  0.79558083  0.48144967
   0.56228132  0.61840154  0.22209367
   0.89532515  0.01770758  0.90388261
   0.37781821  0.42165495  0.13699589
   0.83412085  0.61641332  0.46139784
   0.32520178  0.06718778  0.94400335
   0.10005202  0.91962035  0.07893090
   0.78072058  0.80971222  0.23095553
   0.24781173  0.25470748  0.90128601
   0.57040765  0.95826122  0.41075048
   0.16895831  0.09994632  0.09046550
   0.66512284  0.66502096  0.61936982
   0.14161992  0.95823413  0.26014270
   0.65636333  0.50644953  0.44206001
   0.15459028  0.93165697  0.90035984
   0.02391814  0.42321571  0.88718786
   0.81386729  0.13553543  0.46214576
   0.11121522  0.54253010  0.36865849
   0.31318642  0.32236429  0.69782960
   0.63012828  0.44408780  0.75956260
   0.72338916  0.66338613  0.87952714
   0.20306250  0.34765944  0.37240934
   0.76177629  0.44198805  0.02911923
   0.90459596  0.67157527  0.27496712
   0.94005447  0.26916742  0.16541036
   0.04755676  0.16175509  0.85276201
   0.52440909  0.38319074  0.01779221
   0.21959165  0.33294750  0.15002428
   0.43639558  0.62814895  0.06989713
   0.39503477  0.99613124  0.22900663
   0.29942519  0.92026653  0.45888790
   0.71127618  0.91376030  0.95577001
   0.72394693  0.22597599  0.25630694
   0.35900120  0.17357222  0.38471592
   0.43306449  0.70186173  0.38059842
   0.61428233  0.09217372  0.77293478
   0.03093988  0.26231592  0.62477982
   0.05839316  0.01136270  0.66905113
   0.70777401  0.98015794  0.24850916
   0.84721448  0.24118495  0.94640280
   0.52884636  0.28970508  0.40004682
   0.37199397  0.52714111  0.27475276
   0.47736763  0.18746836  0.60209819
   0.90804884  0.93990483  0.29269486
   0.73118875  0.65434401  0.11973418
   0.31862988  0.02630264  0.76719178
   0.37388081  0.71169602  0.59936786
   0.20825560  0.72143083  0.33473076
   0.98539105  0.49532149  0.09285912
   0.82434786  0.87842053  0.73742081
   0.63070617  0.46202835  0.22027060
   0.17822056  0.79316149  0.56332028
   0.41111150  0.50638551  0.81185274
   0.82790148  0.12991566  0.71040151
   0.22504779  0.53540717  0.03944901
   0.48112812  0.12379347  0.98310799
   0.95245999  0.63128530  0.77573056
   0.01756527  0.76237066  0.13833564
   0.92965123  0.95344687  0.06254130
   0.49237002  0.69842108  0.80074520
   0.43504166  0.46993819  0.54721650
   0.42478476  0.89623616  0.97194245
   0.69382138  0.28417900  0.67851014
   0.88735590  0.45372541  0.37876656
   0.19623218  0.08361295  0.51818707
   0.02070771  0.16530309  0.32732147
   0.19897660  0.67478038  0.76979460
   0.71319630  0.73653792  0.37981030
   0.84987947  0.46130999  0.58612245
   0.18772520  0.49612289  0.60580944
   0.55299999  0.81342768  0.18436236
   0.25394171  0.79142176  0.08947727
   0.91978399  0.78012841  0.51818119
   0.75092036  0.08165951  0.04003197
   0.49383995  0.22020445  0.17686116
   0.56435803  0.91950009  0.64066789
