Built with Packmol                      
   1.00000000000000     
    11.8284812099999996    0.0000000000000000    0.0000000000000000
     0.0000000000000000   11.8284812099999996    0.0000000000000000
     0.0000000000000000    0.0000000000000000   11.8284812099999996
   Ta   O 
    30    75
Direct
  0.1217145820749532  0.2817788664889814  0.4865888263932406
  0.2807963498435485  0.7447141729459872  0.8680907602694354
  0.0761927980566521  0.2610282434673713  0.8435996266809093
  0.4276865460268765  0.4674572127368245  0.7337791489255213
  0.1087569109840375  0.6099397752595250  0.7209287072712821
  0.3324940876230600  0.4327203702280619  0.9995962492032018
  0.6359616960528244  0.4034180591296239  0.9992648604453924
  0.6070888625219496  0.7206047467873273  0.9970030366202008
  0.8944611425732872  0.7231494780486897  0.2230109509697835
  0.5308916788057548  0.1263027157452386  0.9708082972599760
  0.3054721996610553  0.0553779517582544  0.4936740531687275
  0.6372353781348702  0.7504169284847065  0.3872369705799263
  0.3984319383114008  0.3638185531449945  0.4593633415848469
  0.3899166626559067  0.2097784568909866  0.2649192598989287
  0.1872389655025616  0.0585769469714298  0.9566589239084253
  0.3475420405071988  0.1743367719804461  0.7151240574947761
  0.7880767236492905  0.5886642559689704  0.7961778828399469
  0.0038725766633518  0.0247180637148365  0.2272375850591376
  0.8633995178839653  0.2737467264712277  0.6197402843492650
  0.6683605926050622  0.4507695851584295  0.4634830394485986
  0.2468101178793217  0.8431522587303489  0.3455732237589907
  0.1395407554873275  0.3953964288541791  0.2320092029993942
  0.9445100747059006  0.8187615493789588  0.6862943979840520
  0.1133433424605428  0.6311268134471988  0.0693802466499471
  0.7560706305577627  0.1462958620569866  0.3799390118774266
  0.6614077230305381  0.9897119135588277  0.1761749311988818
  0.7320219946415515  0.9527338120340002  0.8027834780111633
  0.8888443515143667  0.2801068384209280  0.0447622598549254
  0.4757029563923877  0.7305258504152227  0.6715895020225232
  0.3673411052385313  0.6061034925947884  0.3930724618748936
  0.5827732493752231  0.7866798080654437  0.5360855047820308
  0.6668954127843802  0.8671374055685848  0.0462570955540823
  0.0298660279540316  0.5743688153367044  0.9766649100788293
  0.2405840565681967  0.6871336787901550  0.3030990958196866
  0.7221771253423650  0.5994899768828622  0.4396234869376981
  0.4804396885697272  0.4620410579407700  0.9348383820708448
  0.4386196874221657  0.2704917031267783  0.5812342793096290
  0.2129555880694029  0.3966734402419266  0.8740909385423300
  0.1040487485922962  0.1945747630621504  0.9853207244739800
  0.9466953589089480  0.3339273971253716  0.9247611578445925
  0.2822243479268352  0.2649807802147025  0.1546208354348248
  0.0439176430061662  0.7182872436865861  0.8235718427769922
  0.6590735421699747  0.8112215415284988  0.8603626237219633
  0.6208140764505786  0.0735097433606496  0.3246895389612365
  0.7669481663691400  0.6236944831233477  0.1981982945489066
  0.4236971003504218  0.0278294834226546  0.5933874520531812
  0.1000864334834944  0.4369425271011733  0.3867894179365825
  0.7851735729290490  0.6638298538671004  0.6475148347563374
  0.2514244546204310  0.1738323555598036  0.8431158234856929
  0.9294482442692035  0.9703564088090684  0.6559093588051386
  0.6308558704371819  0.0574217036970021  0.8758783626413233
  0.4473346928017312  0.7899339294879373  0.8941285613155909
  0.7518277647124230  0.9210494044385730  0.6482248573094096
  0.5377590704042556  0.6015725976315537  0.7474332696160567
  0.0457304974881778  0.5416267505217111  0.2307619625449320
  0.4083726388718610  0.3455382407028457  0.7958798472281610
  0.2541456588154516  0.2934125609810713  0.3773654623619652
  0.3396265322521322  0.7907332517803822  0.7154257852239805
  0.4799589720161052  0.3172483739379838  0.3243898147443460
  0.2236086051840344  0.3223084513648205  0.6532541265457247
  0.3597899989139166  0.4691402437914868  0.5703900109282297
  0.7408571466157633  0.4505385941199799  0.7542561260974524
  0.4867368099480712  0.1609991081458401  0.1726047233880626
  0.8843594807089131  0.1285307688783469  0.5269510917321657
  0.2617016420830020  0.6379228055579386  0.9972480879334391
  0.8803170026501060  0.8399157694349101  0.8556306006833777
  0.7276541109799894  0.2809150364294178  0.4240668226850620
  0.9804614003583920  0.0852023542151803  0.8194634198210486
  0.7215926092054926  0.6059986583006739  0.9421751442412045
  0.1450267859035334  0.9357342221078531  0.2710711465663809
  0.2960141889841439  0.5931132545242099  0.7745194345318175
  0.4879230720052978  0.6412055545913965  0.0428374634006113
  0.3693516170137937  0.8579642606887892  0.2599491931823252
  0.3070749844672617  0.4642950165609442  0.3711958215382381
  0.8471718957399588  0.2160249774697417  0.7953600887668298
  0.3007466920821977  0.0386000782505127  0.0601668174609111
  0.8104988862492003  0.4379035215285705  0.5762766203581111
  0.8513130465204817  0.1301387574837766  0.0391472075452915
  0.9916646488857724  0.3043835093175152  0.5660051178663996
  0.0162324274644087  0.7555605283259349  0.1019486977958651
  0.2140587047856574  0.8885153151366556  0.8799629733486093
  0.0474531065903105  0.1534438313463644  0.4431923997737596
  0.5876435104868339  0.2878608843228144  0.9367451473569490
  0.8727655079192599  0.1367155716339117  0.2852497287889938
  0.4880337157084445  0.5167874678305608  0.4272089770818350
  0.9661657314273547  0.5536215443645270  0.7601178652770664
  0.3582556327693678  0.6644734492439237  0.5743679068553251
  0.5392750803936187  0.6543297890087741  0.3035279270035353
  0.2387048326481481  0.1488310184396195  0.5926059520323242
  0.6745617651870123  0.1507767120713923  0.1042543972608722
  0.0763813002733278  0.0482953115914917  0.1023580104001539
  0.0951679966410427  0.7385351901319203  0.6393745279476433
  0.6232958624885442  0.8786823988087975  0.2799424936603977
  0.2983825424688374  0.1066697056598188  0.3644023366485794
  0.3971115105408354  0.3117865392391084  0.9993299334923300
  0.5388418075019515  0.0079869288201391  0.0739150366244670
  0.8364212018768843  0.8949119796489783  0.2108843488847787
  0.7785960219622406  0.3925653411166923  0.0754649403290962
  0.4435292708817530  0.0921292985981003  0.8471548936135020
  0.2167260045783688  0.4989388907311496  0.1288984277727814
  0.9930712641296329  0.3200437242702140  0.1704417477020261
  0.5501145595372356  0.4610269289842725  0.5805397732486882
  0.9390300137075062  0.7451690685605360  0.3949782067751895
  0.2862342582644991  0.9074391947011335  0.5049501379506618
  0.5856585026968975  0.4053327093786128  0.1404217015802215
 
 -0.13598787E-02 -0.20196028E-02 -0.40957779E-02
  0.15213921E-02  0.26776392E-02  0.21199713E-02
  0.29620303E-03  0.10650498E-02  0.87134899E-02
  0.37159474E-03 -0.11412050E-02 -0.11711531E-02
 -0.12753988E-02  0.20061687E-02 -0.48442477E-02
  0.48397080E-02 -0.22008593E-02  0.27569015E-02
  0.52164910E-02 -0.66358267E-02 -0.27849009E-03
 -0.79876542E-02 -0.26332294E-02  0.40653833E-02
 -0.45296271E-02 -0.28117985E-02 -0.13163819E-02
  0.64560654E-02 -0.55808244E-02  0.23719876E-02
  0.37039847E-02  0.30557842E-02  0.82480792E-02
 -0.50441630E-02 -0.11290401E-02 -0.22173715E-02
 -0.24703055E-02  0.95206733E-02 -0.17983690E-02
  0.22559177E-02 -0.53579441E-03  0.82391144E-03
 -0.23159823E-02  0.77517003E-02 -0.23346404E-02
 -0.61832649E-02  0.90576304E-03  0.56369130E-03
  0.51422063E-02  0.58204650E-02  0.46496507E-02
 -0.38322869E-02  0.38194888E-02  0.12460076E-01
  0.53305062E-02 -0.51238935E-02  0.18218863E-02
 -0.16303503E-02  0.38459041E-03 -0.45118610E-02
 -0.98498587E-02 -0.28548343E-02 -0.47102909E-02
  0.17739463E-02 -0.33875611E-02 -0.33998627E-02
 -0.44731888E-02  0.39698174E-03 -0.80453908E-02
  0.36243317E-02 -0.42782232E-02 -0.65138306E-02
 -0.31827420E-02 -0.33194827E-02 -0.41908504E-04
  0.63017546E-02 -0.34863428E-02 -0.13441397E-02
  0.89770250E-02  0.56795581E-02  0.58926016E-02
 -0.66885674E-02 -0.31950945E-02 -0.63965605E-02
 -0.11529197E-02 -0.71014226E-02  0.70125031E-02
  0.37303817E-02 -0.38418227E-02 -0.38230409E-02
 -0.13562096E-01  0.10829613E-01 -0.38563064E-02
  0.49451654E-02 -0.42108263E-01  0.98776887E-02
  0.23171006E-02 -0.11876730E-01 -0.15561857E-01
 -0.34323604E-02  0.16268613E-01 -0.41084164E-02
 -0.14992212E-01 -0.19049809E-01 -0.33616697E-01
  0.11228120E-01 -0.11477968E-01  0.21070600E-01
 -0.96517336E-02  0.18054683E-01 -0.22463483E-02
 -0.18150184E-01  0.32762817E-01  0.13186217E-01
  0.12260591E-01 -0.51295508E-02 -0.10570868E-01
  0.30307160E-01  0.29056271E-01  0.38632323E-01
 -0.14402054E-03  0.11494031E-01 -0.22013685E-01
  0.56382287E-02  0.23359697E-01  0.56667111E-02
  0.30462560E-02 -0.14673793E-01 -0.11690612E-01
  0.27183493E-01 -0.91339593E-02 -0.20916818E-02
 -0.12986145E-01  0.61653904E-01  0.16456392E-01
 -0.43483012E-02  0.26110155E-03  0.22448916E-01
  0.15097445E-01  0.27699549E-01 -0.25907774E-01
  0.57889799E-02  0.96653245E-02  0.17698731E-01
 -0.22315538E-01 -0.23299822E-01  0.27134031E-01
 -0.23934275E-02 -0.62461891E-02  0.73926694E-02
  0.21511103E-01 -0.14586566E-01  0.54961069E-02
 -0.14589988E-01 -0.15630064E-01 -0.21681280E-01
 -0.21052563E-01  0.37144195E-01 -0.15194594E-01
  0.50241956E-02  0.12019038E-01  0.16389961E-01
 -0.12636235E-01 -0.43773415E-02  0.31690055E-02
 -0.15764407E-02  0.64289192E-02  0.31158211E-02
 -0.32408726E-02  0.26307989E-02  0.15115466E-01
 -0.15364655E-01  0.64647311E-04  0.28683287E-01
  0.28387194E-02  0.63969439E-02 -0.16652572E-02
  0.13168100E-01  0.17311956E-01  0.55542623E-03
  0.13421501E-01 -0.58346665E-02 -0.24323324E-01
 -0.86374629E-02  0.13846512E-01 -0.15242220E-01
  0.20506906E-01  0.12680042E-01  0.24327062E-01
  0.53342928E-02  0.24420642E-01 -0.21894396E-01
  0.11891150E-01 -0.26866868E-02 -0.41017741E-03
  0.20708232E-01  0.10026019E-01  0.17674967E-01
 -0.14524976E-01 -0.22101413E-02 -0.39772383E-02
  0.19232960E-02 -0.27101730E-01 -0.11927131E-01
  0.63294106E-02  0.66963470E-02  0.11237959E-01
  0.40199627E-02 -0.62793519E-02 -0.13501329E-01
 -0.64714568E-02  0.27647459E-01 -0.39955066E-03
  0.94542015E-02  0.28536529E-02 -0.55965808E-02
  0.19984474E-01 -0.14224763E-02  0.23605779E-01
 -0.24831261E-01  0.14811468E-01 -0.34319050E-03
 -0.24374756E-01  0.20676409E-01  0.12933074E-01
 -0.14407308E-01 -0.15801213E-01 -0.17233657E-01
 -0.14397909E-01 -0.36728871E-01 -0.12342604E-01
 -0.11455531E-01  0.18896853E-01  0.85271175E-02
 -0.10461805E-01 -0.10012960E-01  0.32282790E-01
  0.12015726E-01  0.13818704E-02  0.57006255E-02
  0.16244125E-01 -0.15525703E-01  0.77523461E-02
 -0.13318225E-01 -0.75537989E-02 -0.12693968E-01
 -0.12571864E-01  0.21515883E-01  0.13839975E-02
  0.13798602E-01  0.34477005E-01 -0.29322142E-01
  0.13786086E-01 -0.10810199E-01  0.69125684E-02
 -0.18069922E-01 -0.45147608E-02 -0.15289292E-01
 -0.90751241E-02  0.39779085E-01  0.16230093E-01
 -0.21587317E-02  0.23455062E-01 -0.17030454E-02
 -0.27784224E-01  0.94421334E-02 -0.39994440E-02
  0.30193113E-01 -0.80067818E-02 -0.10783404E-01
  0.98332095E-02 -0.13256769E-01 -0.51321218E-02
  0.98239548E-03  0.27719303E-02 -0.24745330E-01
  0.65920464E-02 -0.16076290E-01 -0.45231186E-02
  0.28774916E-01  0.27994658E-01 -0.29106654E-01
 -0.11899302E-01  0.86053756E-02 -0.11257099E-01
  0.55845148E-03 -0.90226618E-02  0.84858726E-02
  0.20672216E-01 -0.74532391E-02  0.54442647E-03
  0.96548743E-02 -0.25192847E-01 -0.17870747E-02
 -0.69515750E-02 -0.15916282E-01 -0.82296131E-02
 -0.94339585E-03 -0.26566936E-02  0.32760205E-02
  0.21513786E-02 -0.54851064E-02 -0.39062468E-02
 -0.22004924E-01 -0.27000869E-03  0.23415071E-02
 -0.39535564E-02 -0.74699710E-02 -0.32180544E-01
  0.64755592E-02  0.68971661E-02  0.97627060E-02
  0.10603699E-01 -0.11349279E-01 -0.56774963E-02
 
           1
   2.00000000000000     
  0.10000000E+01  0.00000000E+00  0.00000000E+00  0.00000000E+00
  0.12148465E+00  0.28143739E+00  0.48589630E+00
  0.28105359E+00  0.74516692E+00  0.86844921E+00
  0.76242881E-01  0.26120833E+00  0.84507293E+00
  0.42774938E+00  0.46726425E+00  0.73358113E+00
  0.10854126E+00  0.61027899E+00  0.72010963E+00
  0.33331240E+00  0.43234824E+00  0.62395516E-04
  0.63684372E+00  0.40229605E+00  0.99921777E+00
  0.60573828E+00  0.72015951E+00  0.99769043E+00
  0.89369526E+00  0.72267405E+00  0.22278837E+00
  0.53198329E+00  0.12535909E+00  0.97120936E+00
  0.30609848E+00  0.55894634E-01  0.49506867E+00
  0.63638249E+00  0.75022603E+00  0.38686205E+00
  0.39801425E+00  0.36542834E+00  0.45905927E+00
  0.39029810E+00  0.20968786E+00  0.26505857E+00
  0.18684737E+00  0.59887631E-01  0.95626417E+00
  0.34649655E+00  0.17448992E+00  0.71521937E+00
  0.78894619E+00  0.58964840E+00  0.79696406E+00
  0.32246005E-02  0.25363876E-01  0.22934438E+00
  0.86430082E+00  0.27288036E+00  0.62004834E+00
  0.66808493E+00  0.45083461E+00  0.46272016E+00
  0.24514467E+00  0.84266955E+00  0.34477679E+00
  0.13984070E+00  0.39482365E+00  0.23143434E+00
  0.94375373E+00  0.81882867E+00  0.68493406E+00
  0.11395616E+00  0.63040344E+00  0.68278866E-01
  0.75553248E+00  0.14573459E+00  0.37993193E+00
  0.66247325E+00  0.98912243E+00  0.17594766E+00
  0.73353986E+00  0.95369413E+00  0.80377982E+00
  0.88771343E+00  0.27956660E+00  0.43680708E-01
  0.47550802E+00  0.72932512E+00  0.67277520E+00
  0.36797185E+00  0.60545390E+00  0.39242605E+00
  0.58048012E+00  0.78851092E+00  0.53543347E+00
  0.66773156E+00  0.86001760E+00  0.47927249E-01
  0.30257811E-01  0.57236066E+00  0.97403366E+00
  0.24000370E+00  0.68988443E+00  0.30240443E+00
  0.71964219E+00  0.59626897E+00  0.43393946E+00
  0.48233818E+00  0.46010032E+00  0.93840107E+00
  0.43698774E+00  0.27354445E+00  0.58085446E+00
  0.20988669E+00  0.40221309E+00  0.87632051E+00
  0.10612181E+00  0.19370744E+00  0.98353337E+00
  0.95181980E+00  0.33884033E+00  0.93129324E+00
  0.28220000E+00  0.26692423E+00  0.15089869E+00
  0.44870974E-01  0.72223698E+00  0.82452999E+00
  0.65958861E+00  0.80874045E+00  0.85838594E+00
  0.62541035E+00  0.71965342E-01  0.32433587E+00
  0.76475242E+00  0.63411914E+00  0.20098080E+00
  0.42296187E+00  0.27873631E-01  0.59718319E+00
  0.10263916E+00  0.44162606E+00  0.38240884E+00
  0.78615239E+00  0.66546410E+00  0.65050740E+00
  0.24765127E+00  0.16989274E+00  0.84770374E+00
  0.92904356E+00  0.96930028E+00  0.65715934E+00
  0.63449304E+00  0.54955357E-01  0.87680766E+00
  0.44486777E+00  0.78729114E+00  0.89046262E+00
  0.74826813E+00  0.92732987E+00  0.64565570E+00
  0.53860858E+00  0.60360482E+00  0.75020454E+00
  0.43593920E-01  0.54088661E+00  0.23129779E+00
  0.40810609E+00  0.34662526E+00  0.79640668E+00
  0.25359768E+00  0.29385739E+00  0.37992124E+00
  0.33702862E+00  0.79074418E+00  0.72027565E+00
  0.48043895E+00  0.31832999E+00  0.32410825E+00
  0.22583511E+00  0.32523562E+00  0.65334804E+00
  0.36205935E+00  0.46815370E+00  0.56627734E+00
  0.73939669E+00  0.45287981E+00  0.75167892E+00
  0.49020419E+00  0.16314309E+00  0.17671803E+00
  0.88526142E+00  0.13265989E+00  0.52324911E+00
  0.26371224E+00  0.63746853E+00  0.99717873E+00
  0.88381842E+00  0.84161100E+00  0.85861914E+00
  0.72519818E+00  0.28054134E+00  0.42339434E+00
  0.98078660E+00  0.80619901E-01  0.81744674E+00
  0.72266281E+00  0.60713090E+00  0.94407530E+00
  0.14570649E+00  0.93467249E+00  0.26878830E+00
  0.29491997E+00  0.59778798E+00  0.77445188E+00
  0.48952162E+00  0.64168806E+00  0.41891174E-01
  0.37273066E+00  0.85772374E+00  0.26394054E+00
  0.30287643E+00  0.46679939E+00  0.37113779E+00
  0.84305053E+00  0.21952102E+00  0.79754686E+00
  0.29831066E+00  0.35928355E-01  0.57252892E-01
  0.80806444E+00  0.43169328E+00  0.57418969E+00
  0.84937611E+00  0.13333390E+00  0.40589002E-01
  0.98989573E+00  0.30269048E+00  0.57146360E+00
  0.18264087E-01  0.75579418E+00  0.10291258E+00
  0.21680532E+00  0.88589018E+00  0.88127377E+00
  0.45201216E-01  0.15216661E+00  0.44104606E+00
  0.58551782E+00  0.29149886E+00  0.93697916E+00
  0.87509862E+00  0.14254506E+00  0.28029184E+00
  0.49036471E+00  0.51495964E+00  0.42837778E+00
  0.96311041E+00  0.55285817E+00  0.75753270E+00
  0.35672118E+00  0.67119943E+00  0.57711215E+00
  0.53891007E+00  0.65829565E+00  0.30323997E+00
  0.23400698E+00  0.15042753E+00  0.59192971E+00
  0.67966692E+00  0.14942290E+00  0.10243110E+00
  0.78043933E-01  0.46053812E-01  0.10149025E+00
  0.95334103E-01  0.73900388E+00  0.63519050E+00
  0.62441047E+00  0.87596416E+00  0.27917771E+00
  0.30324790E+00  0.11140314E+00  0.35948088E+00
  0.39509954E+00  0.31324157E+00  0.99742654E+00
  0.53893623E+00  0.64613463E-02  0.75349857E-01
  0.83991653E+00  0.89365176E+00  0.21097640E+00
  0.78022850E+00  0.38830565E+00  0.75162776E-01
  0.44235387E+00  0.89438119E-01  0.84576340E+00
  0.21656649E+00  0.49848969E+00  0.12945235E+00
  0.99343503E+00  0.31911628E+00  0.16978127E+00
  0.54639389E+00  0.46098127E+00  0.58093568E+00
  0.93836153E+00  0.74390602E+00  0.38953701E+00
  0.28732917E+00  0.90860539E+00  0.50660085E+00
  0.58745141E+00  0.40341373E+00  0.13946173E+00
 -0.26594551E-03 -0.34764757E-03 -0.68416574E-03
  0.21084261E-03  0.43090307E-03  0.35148747E-03
  0.58191263E-04  0.18947534E-03  0.14683753E-02
  0.62113254E-04 -0.28234739E-03 -0.13940318E-03
 -0.20171605E-03  0.33685875E-03 -0.84803955E-03
  0.85485898E-03 -0.42295275E-03  0.48448145E-03
  0.87107695E-03 -0.12153852E-02 -0.93230033E-04
 -0.13465417E-02 -0.46717904E-03  0.70178704E-03
 -0.76507911E-03 -0.48181362E-03 -0.25223492E-03
  0.10869368E-02 -0.96175490E-03  0.36754469E-03
  0.59690418E-03  0.55817442E-03  0.13047872E-02
 -0.84355895E-03 -0.16784368E-03 -0.36118188E-03
 -0.42298576E-03  0.16095448E-02 -0.32556917E-03
  0.43718355E-03 -0.84776323E-04  0.16441060E-03
 -0.41393133E-03  0.13408187E-02 -0.41068377E-03
 -0.10713916E-02  0.13157076E-03  0.10384689E-03
  0.84791772E-03  0.99089122E-03  0.83189112E-03
 -0.63787384E-03  0.66177780E-03  0.20946135E-02
  0.97488210E-03 -0.83821058E-03  0.26881339E-03
 -0.28826717E-03  0.39775857E-04 -0.80536957E-03
 -0.16810320E-02 -0.48042560E-03 -0.78922150E-03
  0.33268997E-03 -0.58771980E-03 -0.58400204E-03
 -0.72784955E-03  0.43149634E-04 -0.13925391E-02
  0.58498573E-03 -0.73358661E-03 -0.11724535E-02
 -0.54578826E-03 -0.50601966E-03 -0.24669838E-04
  0.10570617E-02 -0.60273597E-03 -0.17960760E-03
  0.14976427E-02  0.10115682E-02  0.99458172E-03
 -0.11114002E-02 -0.52222082E-03 -0.11580727E-02
 -0.19194213E-03 -0.12031790E-02  0.11986221E-02
  0.62559941E-03 -0.65776833E-03 -0.66138384E-03
 -0.21513636E-02  0.19188717E-02 -0.59308140E-03
  0.80010770E-03 -0.69816559E-02  0.13385100E-02
  0.85482679E-03 -0.15639634E-02 -0.20965033E-02
 -0.65797105E-03  0.28127535E-02 -0.87422947E-03
 -0.23509486E-02 -0.31274365E-02 -0.56156750E-02
  0.18782725E-02 -0.23542979E-02  0.37617616E-02
 -0.15647749E-02  0.33554539E-02 -0.49976506E-03
 -0.29659311E-02  0.55861043E-02  0.20147450E-02
  0.20677535E-02 -0.10809382E-02 -0.17586288E-02
  0.45885109E-02  0.46084199E-02  0.72722194E-02
  0.11802472E-03  0.17733889E-02 -0.39801694E-02
  0.66629755E-03  0.38722828E-02  0.95446364E-03
  0.46669186E-03 -0.26646516E-02 -0.15802767E-02
  0.43580908E-02 -0.16678455E-02 -0.46273858E-03
 -0.24783016E-02  0.10066353E-01  0.27025669E-02
 -0.85801217E-03 -0.22831901E-03  0.36122908E-02
  0.26101515E-02  0.50774538E-02 -0.44826388E-02
  0.87300776E-03  0.15494660E-02  0.26336755E-02
 -0.35530928E-02 -0.38174928E-02  0.46219007E-02
 -0.72168891E-03 -0.64480155E-03  0.12124381E-02
  0.32656861E-02 -0.23688490E-02  0.11223881E-02
 -0.22849866E-02 -0.24861285E-02 -0.36352344E-02
 -0.33260970E-02  0.62496770E-02 -0.28676922E-02
  0.92555942E-03  0.19633580E-02  0.28088050E-02
 -0.22094627E-02 -0.81054204E-03  0.82014570E-03
 -0.17181340E-03  0.21693819E-02  0.38295129E-03
 -0.55177573E-03  0.54824220E-03  0.23944322E-02
 -0.25559706E-02 -0.14339350E-03  0.47808486E-02
  0.19988607E-03  0.85450727E-03 -0.50768368E-03
  0.24095183E-02  0.29495464E-02  0.72007686E-04
  0.24805754E-02 -0.10224721E-02 -0.44812401E-02
 -0.14191157E-02  0.22350906E-02 -0.28182245E-02
  0.32850145E-02  0.22359483E-02  0.44573466E-02
  0.13993270E-02  0.38680186E-02 -0.36778722E-02
  0.19866179E-02 -0.67506589E-03  0.14362805E-03
  0.35862201E-02  0.15713151E-02  0.34314351E-02
 -0.22383998E-02 -0.10978494E-02 -0.80705182E-03
 -0.55209805E-04 -0.49025688E-02 -0.20894137E-02
  0.12167384E-02  0.11389500E-02  0.17784277E-02
  0.98537585E-03 -0.12023559E-02 -0.23031143E-02
 -0.95589362E-03  0.47831092E-02 -0.57324483E-04
  0.15037819E-02  0.45221460E-03 -0.11082343E-02
  0.34449784E-02 -0.32157216E-03  0.38395873E-02
 -0.39760893E-02  0.20443313E-02  0.25285795E-03
 -0.41692579E-02  0.33159442E-02  0.27300736E-02
 -0.22052451E-02 -0.27646246E-02 -0.26623747E-02
 -0.22015580E-02 -0.58887812E-02 -0.17708165E-02
 -0.20423838E-02  0.32315242E-02  0.14576009E-02
 -0.21777689E-02 -0.20531999E-02  0.53573244E-02
  0.21684455E-02  0.20149149E-03  0.73499447E-03
  0.28158860E-02 -0.27670811E-02  0.11709209E-02
 -0.25260476E-02 -0.13019626E-02 -0.19655091E-02
 -0.19379734E-02  0.46590201E-02  0.64994193E-03
  0.21137808E-02  0.59487779E-02 -0.47455829E-02
  0.20592954E-02 -0.16987912E-02  0.14246359E-02
 -0.30094061E-02 -0.57612276E-03 -0.24501824E-02
 -0.17771981E-02  0.66707311E-02  0.31149458E-02
 -0.30976625E-03  0.36345803E-02 -0.49841082E-03
 -0.43414833E-02  0.15608480E-02 -0.88842136E-03
  0.50493429E-02 -0.12050033E-02 -0.19245757E-02
  0.16784037E-02 -0.21640730E-02 -0.76300219E-03
  0.21543916E-03  0.43190016E-03 -0.38509298E-02
  0.11396703E-02 -0.23192987E-02 -0.11169369E-02
  0.47463182E-02  0.45062922E-02 -0.37394891E-02
 -0.21734236E-02  0.24112829E-02 -0.20301152E-02
  0.28392294E-03 -0.12963920E-02  0.14298618E-02
  0.33152753E-02 -0.13063796E-02  0.90058629E-04
  0.14298899E-02 -0.41511626E-02 -0.19970708E-03
 -0.82790709E-03 -0.28331159E-02 -0.10588284E-02
 -0.29904331E-03 -0.21193609E-03  0.56071357E-03
  0.97304473E-04 -0.93097612E-03 -0.69513503E-03
 -0.41470504E-02  0.16382653E-03  0.31355078E-03
 -0.49718603E-03 -0.12291188E-02 -0.49269020E-02
  0.13806890E-02  0.17535741E-02  0.19275509E-02
  0.19342736E-02 -0.19086774E-02 -0.91567251E-03
  0.00000000E+00  0.00000000E+00  0.00000000E+00
  0.00000000E+00  0.00000000E+00  0.00000000E+00
  0.00000000E+00  0.00000000E+00  0.00000000E+00
  0.00000000E+00  0.00000000E+00  0.00000000E+00
  0.00000000E+00  0.00000000E+00  0.00000000E+00
  0.00000000E+00  0.00000000E+00  0.00000000E+00
  0.00000000E+00  0.00000000E+00  0.00000000E+00
  0.00000000E+00  0.00000000E+00  0.00000000E+00
  0.00000000E+00  0.00000000E+00  0.00000000E+00
  0.00000000E+00  0.00000000E+00  0.00000000E+00
  0.00000000E+00  0.00000000E+00  0.00000000E+00
  0.00000000E+00  0.00000000E+00  0.00000000E+00
  0.00000000E+00  0.00000000E+00  0.00000000E+00
  0.00000000E+00  0.00000000E+00  0.00000000E+00
  0.00000000E+00  0.00000000E+00  0.00000000E+00
  0.00000000E+00  0.00000000E+00  0.00000000E+00
  0.00000000E+00  0.00000000E+00  0.00000000E+00
  0.00000000E+00  0.00000000E+00  0.00000000E+00
  0.00000000E+00  0.00000000E+00  0.00000000E+00
  0.00000000E+00  0.00000000E+00  0.00000000E+00
  0.00000000E+00  0.00000000E+00  0.00000000E+00
  0.00000000E+00  0.00000000E+00  0.00000000E+00
  0.00000000E+00  0.00000000E+00  0.00000000E+00
  0.00000000E+00  0.00000000E+00  0.00000000E+00
  0.00000000E+00  0.00000000E+00  0.00000000E+00
  0.00000000E+00  0.00000000E+00  0.00000000E+00
  0.00000000E+00  0.00000000E+00  0.00000000E+00
  0.00000000E+00  0.00000000E+00  0.00000000E+00
  0.00000000E+00  0.00000000E+00  0.00000000E+00
  0.00000000E+00  0.00000000E+00  0.00000000E+00
  0.00000000E+00  0.00000000E+00  0.00000000E+00
  0.00000000E+00  0.00000000E+00  0.00000000E+00
  0.00000000E+00  0.00000000E+00  0.00000000E+00
  0.00000000E+00  0.00000000E+00  0.00000000E+00
  0.00000000E+00  0.00000000E+00  0.00000000E+00
  0.00000000E+00  0.00000000E+00  0.00000000E+00
  0.00000000E+00  0.00000000E+00  0.00000000E+00
  0.00000000E+00  0.00000000E+00  0.00000000E+00
  0.00000000E+00  0.00000000E+00  0.00000000E+00
  0.00000000E+00  0.00000000E+00  0.00000000E+00
  0.00000000E+00  0.00000000E+00  0.00000000E+00
  0.00000000E+00  0.00000000E+00  0.00000000E+00
  0.00000000E+00  0.00000000E+00  0.00000000E+00
  0.00000000E+00  0.00000000E+00  0.00000000E+00
  0.00000000E+00  0.00000000E+00  0.00000000E+00
  0.00000000E+00  0.00000000E+00  0.00000000E+00
  0.00000000E+00  0.00000000E+00  0.00000000E+00
  0.00000000E+00  0.00000000E+00  0.00000000E+00
  0.00000000E+00  0.00000000E+00  0.00000000E+00
  0.00000000E+00  0.00000000E+00  0.00000000E+00
  0.00000000E+00  0.00000000E+00  0.00000000E+00
  0.00000000E+00  0.00000000E+00  0.00000000E+00
  0.00000000E+00  0.00000000E+00  0.00000000E+00
  0.00000000E+00  0.00000000E+00  0.00000000E+00
  0.00000000E+00  0.00000000E+00  0.00000000E+00
  0.00000000E+00  0.00000000E+00  0.00000000E+00
  0.00000000E+00  0.00000000E+00  0.00000000E+00
  0.00000000E+00  0.00000000E+00  0.00000000E+00
  0.00000000E+00  0.00000000E+00  0.00000000E+00
  0.00000000E+00  0.00000000E+00  0.00000000E+00
  0.00000000E+00  0.00000000E+00  0.00000000E+00
  0.00000000E+00  0.00000000E+00  0.00000000E+00
  0.00000000E+00  0.00000000E+00  0.00000000E+00
  0.00000000E+00  0.00000000E+00  0.00000000E+00
  0.00000000E+00  0.00000000E+00  0.00000000E+00
  0.00000000E+00  0.00000000E+00  0.00000000E+00
  0.00000000E+00  0.00000000E+00  0.00000000E+00
  0.00000000E+00  0.00000000E+00  0.00000000E+00
  0.00000000E+00  0.00000000E+00  0.00000000E+00
  0.00000000E+00  0.00000000E+00  0.00000000E+00
  0.00000000E+00  0.00000000E+00  0.00000000E+00
  0.00000000E+00  0.00000000E+00  0.00000000E+00
  0.00000000E+00  0.00000000E+00  0.00000000E+00
  0.00000000E+00  0.00000000E+00  0.00000000E+00
  0.00000000E+00  0.00000000E+00  0.00000000E+00
  0.00000000E+00  0.00000000E+00  0.00000000E+00
  0.00000000E+00  0.00000000E+00  0.00000000E+00
  0.00000000E+00  0.00000000E+00  0.00000000E+00
  0.00000000E+00  0.00000000E+00  0.00000000E+00
  0.00000000E+00  0.00000000E+00  0.00000000E+00
  0.00000000E+00  0.00000000E+00  0.00000000E+00
  0.00000000E+00  0.00000000E+00  0.00000000E+00
  0.00000000E+00  0.00000000E+00  0.00000000E+00
  0.00000000E+00  0.00000000E+00  0.00000000E+00
  0.00000000E+00  0.00000000E+00  0.00000000E+00
  0.00000000E+00  0.00000000E+00  0.00000000E+00
  0.00000000E+00  0.00000000E+00  0.00000000E+00
  0.00000000E+00  0.00000000E+00  0.00000000E+00
  0.00000000E+00  0.00000000E+00  0.00000000E+00
  0.00000000E+00  0.00000000E+00  0.00000000E+00
  0.00000000E+00  0.00000000E+00  0.00000000E+00
  0.00000000E+00  0.00000000E+00  0.00000000E+00
  0.00000000E+00  0.00000000E+00  0.00000000E+00
  0.00000000E+00  0.00000000E+00  0.00000000E+00
  0.00000000E+00  0.00000000E+00  0.00000000E+00
  0.00000000E+00  0.00000000E+00  0.00000000E+00
  0.00000000E+00  0.00000000E+00  0.00000000E+00
  0.00000000E+00  0.00000000E+00  0.00000000E+00
  0.00000000E+00  0.00000000E+00  0.00000000E+00
  0.00000000E+00  0.00000000E+00  0.00000000E+00
  0.00000000E+00  0.00000000E+00  0.00000000E+00
  0.00000000E+00  0.00000000E+00  0.00000000E+00
  0.00000000E+00  0.00000000E+00  0.00000000E+00
  0.00000000E+00  0.00000000E+00  0.00000000E+00
  0.00000000E+00  0.00000000E+00  0.00000000E+00
