Built with Packmol                      
   1.00000000000000     
    11.8284812099999996    0.0000000000000000    0.0000000000000000
     0.0000000000000000   11.8284812099999996    0.0000000000000000
     0.0000000000000000    0.0000000000000000   11.8284812099999996
   Ta   O 
    30    75
Direct
  0.3853865111816950  0.1313825909867281  0.8563953419647728
  0.2553638715869705  0.1736851343016062  0.2835479015759806
  0.2332284016121893  0.3354718706281805  0.5708153088291971
  0.4388818571521767  0.8093943065326117  0.9765506952540000
  0.7868362238327251  0.3151715888988599  0.3912304404262571
  0.4691266176081691  0.9399446062145262  0.4669482554381412
  0.5235153946303844  0.2259433786166950  0.4619947240753568
  0.4776089915190769  0.6890041738326076  0.3509493702404186
  0.9386314941742100  0.6092729463777887  0.9747005223061309
  0.8539273428134474  0.3187334072153450  0.7305790323017994
  0.5947944573756609  0.9594609220716113  0.7498464765300568
  0.5403217918676195  0.5844512989896633  0.1058169142763236
  0.7836143447674260  0.0725875039748143  0.1250674040908384
  0.7556066061325548  0.8696429552206806  0.5200076347634898
  0.1485449153593986  0.8319917345994688  0.9245082323391365
  0.1404581214409421  0.2799791341264971  0.9170774326047979
  0.8060339121562448  0.6173247203682548  0.6841452994779522
  0.8487018515857958  0.0191624189637937  0.8185527723720267
  0.4965512743007735  0.6872759908082521  0.6892858124512187
  0.1730242482550985  0.0701865680289264  0.6733779090410813
  0.2376716058480823  0.8836437323785697  0.2430850999435814
  0.3369787256065969  0.4027246827535605  0.1533876349644442
  0.0857315090380329  0.6257463629202559  0.5792912594511372
  0.1761900553833559  0.5639194273155071  0.3606053863581371
  0.4905087377742607  0.0580842213417045  0.1220861840452392
  0.7250242560014335  0.7753589193042809  0.2065058052987580
  0.4692080993913514  0.3910166881412006  0.7580554486959354
  0.7983613463303049  0.4022434585835107  0.1517612467318104
  0.9358471187779597  0.9766467462036512  0.3996049101961164
  0.1890919471861186  0.5312448499209859  0.8852685315309541
  0.8754708075564794  0.4886805085275981  0.0394376355917202
  0.8794845580715348  0.0270581941940620  0.2365529495190062
  0.8648921403155621  0.2448399509910945  0.2551262342153036
  0.7513967861502493  0.8823075872704141  0.3558502307396864
  0.4129439631057421  0.2157924781044974  0.2668758566201199
  0.8322792832974141  0.6717910724205082  0.1812042425885942
  0.5024521087893669  0.0626193278477162  0.9513430012437519
  0.5816495014953739  0.0908613244458219  0.4330792356908943
  0.1703446292342503  0.8435490375509921  0.0954559185847190
  0.7770075853422395  0.4611879630006638  0.3056815144453123
  0.6853146970776055  0.7414807041769871  0.5617600232368039
  0.3070775394675366  0.3660773932701548  0.7169025280147047
  0.8785793657720903  0.4904306738158008  0.7214342140522835
  0.8781696928535715  0.6496613757850863  0.8389969459191503
  0.2699843131047297  0.1525757487972304  0.5741925934758627
  0.4636050770337580  0.8252391707403108  0.6279757706499827
  0.2032684256753143  0.2696824614217133  0.3893592867212028
  0.2028796268842420  0.9348587168536010  0.7714769590364964
  0.3421846896200978  0.8848560467404112  0.8873943487549993
  0.1770525458355604  0.1845731128366979  0.0133891394116232
  0.6997521086642063  0.9878193549843572  0.8518171709305873
  0.6761878325527253  0.4962871834387979  0.0640115667839023
  0.1691721643247655  0.7526991240378633  0.2917660924154823
  0.5281267510864157  0.8909491511108608  0.1096864353708772
  0.6284940792794219  0.3317568087251657  0.4237225396947816
  0.7799170143124706  0.8894680482964902  0.1377463417682045
  0.4420746800938372  0.6330650732499226  0.9686959631269922
  0.0103823391274663  0.7681290278596530  0.0013959090386465
  0.4018329437704473  0.2011385082969636  0.9790692952601977
  0.4659278787188194  0.4313635221426951  0.9084587403993644
  0.1238462276223852  0.3230485906597129  0.6664835137239354
  0.6708393931960031  0.6532119961639958  0.7329868267161015
  0.2392245424356141  0.3650022293776083  0.0102950708979193
  0.0700710180087358  0.9041446188493635  0.4409523725740975
  0.0269209644775254  0.5020521755651629  0.3879144848043716
  0.4983699867586299  0.3874182862660424  0.1836760841255268
  0.9606088034855516  0.1293560833422407  0.4263228379764466
  0.2178679436274427  0.2928670393028734  0.1734710612233690
  0.1946083726466363  0.4933262238998770  0.5081970273048273
  0.4055022485776197  0.7813996238457726  0.2252866166743924
  0.4592545795043794  0.0467978418913917  0.7394868127898259
  0.3152167239809031  0.8933984554647361  0.4493743931902439
  0.9399229741207983  0.9289283177207981  0.5416239093304048
  0.1053656414831139  0.5964899908804134  0.0239487541428365
  0.6281126489290579  0.9523888036164004  0.5295182913683042
  0.3970871274308607  0.6093032553406750  0.7616830431825556
  0.8057649341842755  0.1566627303336927  0.7418923790945356
  0.8827670879807699  0.3356561286337763  0.9348152648639668
  0.6936125904370557  0.2322084957614283  0.1773770865431365
  0.1663010972650474  0.0288437348791098  0.2494015408909311
  0.3410366691026096  0.6452238723124353  0.3924441427024288
  0.3303583539676550  0.5955222733494691  0.1377859020622287
  0.2703187153627779  0.1957888906685379  0.7723624558343741
  0.6354944772772361  0.0296362662657025  0.1701662836433382
  0.5940569325133799  0.7494102797498695  0.0983385435096297
  0.4452437777382066  0.3224671445409509  0.5679949319419415
  0.7272328535285377  0.3794162239694142  0.7543553048190965
  0.9403481343707244  0.6928723319710326  0.5957275570868156
  0.3721157209675593  0.0868302570002609  0.3872410372381242
  0.5286324786794356  0.2280585075290681  0.8049116415393861
  0.8271076530259820  0.0890913697791766  0.9715200512390701
  0.1555490630286920  0.5255003786741286  0.7245512926490892
  0.1929128225819616  0.7345633934128040  0.5844427703756091
  0.5502254856066763  0.8218448062035375  0.8254753014827748
  0.8385764511414964  0.2916540077736454  0.5490195854915279
  0.0622110003181935  0.4282663843083673  0.8991560284099467
  0.3442505027547816  0.0729279393242640  0.1437037292619952
  0.7353423599292361  0.9263036520450416  0.6599631038519231
  0.4767209656077996  0.6146177456489736  0.5437629292836206
  0.2392222933911319  0.7023500674547282  0.8894569468548567
  0.0168755426950366  0.1047136080822897  0.7687372951976884
  0.2441777323988166  0.4661174555337281  0.2688604187642288
  0.9681415312976230  0.9048341407966457  0.8726320185579098
  0.5513062367177946  0.8113666262214990  0.4397073415070833
  0.6223732164771137  0.6130551919595366  0.2406101780440114
 
  0.10962423E-02 -0.90739038E-03 -0.18213778E-02
  0.40250523E-02  0.25053872E-02 -0.11294214E-01
 -0.17457323E-02  0.54801239E-02 -0.36266147E-02
 -0.27466008E-02 -0.37869288E-02 -0.21885565E-02
  0.10363447E-01  0.42815946E-03 -0.39511432E-02
  0.14969757E-02 -0.37979008E-03 -0.79119232E-02
  0.40566837E-02 -0.47276179E-02 -0.22430599E-02
 -0.74678113E-02  0.10327475E-01  0.54581565E-02
 -0.20520152E-02  0.35944769E-02 -0.27725087E-02
  0.22621136E-02  0.34619813E-02  0.68711663E-02
 -0.23276015E-02 -0.79697122E-02 -0.41890195E-02
  0.54500148E-02  0.54727369E-02  0.31436369E-03
 -0.95917681E-03  0.15250139E-02  0.65442502E-03
 -0.12894213E-01 -0.26051041E-02  0.61849925E-02
 -0.81400799E-02 -0.20975843E-03 -0.45790660E-02
 -0.22096101E-02  0.23967051E-02 -0.33976315E-03
  0.10657874E-01  0.68402760E-02  0.20292179E-03
  0.42179978E-02 -0.22084530E-02 -0.57976419E-02
  0.17892841E-02 -0.41320427E-02  0.13575625E-02
 -0.51080500E-02 -0.52573140E-02  0.29958116E-02
 -0.13929237E-02 -0.39121795E-02  0.75224138E-02
  0.35292596E-02  0.98674609E-02 -0.23222401E-04
 -0.61623844E-02  0.48799403E-02  0.20534640E-02
 -0.36794223E-03  0.60941856E-03  0.21349544E-02
 -0.54844443E-02 -0.10552633E-01  0.40227110E-02
  0.89427079E-02 -0.83517304E-03 -0.64905880E-03
  0.30370168E-02 -0.30233327E-02 -0.46882789E-02
  0.28912012E-03 -0.36122878E-03  0.37535182E-02
  0.35557829E-02 -0.28904180E-02  0.71019334E-02
 -0.12724582E-02  0.92011200E-03  0.39881070E-02
 -0.10021654E-01  0.11824676E-01  0.11048027E-01
  0.27519924E-01 -0.28557673E-03  0.28524637E-01
 -0.16422226E-01 -0.29432691E-01  0.75684764E-02
  0.28719921E-02  0.13552069E-02 -0.19147033E-01
  0.53302112E-02  0.29873450E-01  0.68598864E-02
 -0.13559413E-01  0.20785994E-02  0.86447590E-02
  0.15122948E-01 -0.15057569E-02  0.41155385E-03
  0.22095361E-01  0.76035185E-02  0.99583444E-02
  0.84230840E-02  0.45185662E-01 -0.14089238E-02
  0.33344630E-02  0.16435423E-01 -0.14329928E-01
 -0.11955426E-01  0.18010915E-01 -0.16215954E-01
  0.26669193E-01  0.14405361E-01 -0.57847280E-02
 -0.91148308E-02 -0.11275905E-02 -0.15455512E-01
 -0.11151407E-01  0.82028376E-02  0.69195808E-02
 -0.35131572E-02  0.65995101E-02  0.55482883E-02
  0.21956217E-01  0.88355186E-02 -0.54793788E-02
  0.38129872E-01 -0.34745054E-03  0.19586233E-01
  0.27738660E-01  0.11081507E-01  0.13615615E-01
 -0.12870239E-02  0.12378250E-01 -0.72426739E-02
 -0.16477070E-01 -0.30977723E-01  0.42916333E-02
  0.12541300E-01 -0.35869455E-02  0.46165178E-02
 -0.22277905E-01  0.15405527E-02 -0.11571765E-01
 -0.26957193E-01 -0.69179320E-02  0.30847271E-02
 -0.12678222E-01 -0.14781498E-01 -0.15709949E-01
 -0.16244965E-01 -0.17130451E-01 -0.20569462E-02
  0.17608665E-02 -0.86663041E-02  0.38089802E-02
  0.99910501E-02 -0.13164819E-01 -0.81851517E-02
 -0.16039545E-02 -0.33093152E-02 -0.23005061E-01
 -0.34492119E-01  0.12974849E-01 -0.22338760E-01
  0.16556266E-01  0.97628620E-03 -0.15481440E-01
  0.19912597E-01  0.19799195E-01  0.66467611E-02
 -0.17250948E-01  0.20881331E-01 -0.30719300E-02
 -0.12565518E-01  0.17184909E-02 -0.24505029E-01
 -0.54294069E-02  0.29800017E-02  0.21714050E-01
 -0.20051992E-01 -0.11851739E-01  0.22699083E-01
 -0.15274154E-01 -0.79909590E-03 -0.50641027E-02
  0.26781838E-01 -0.23702104E-01  0.18649695E-01
 -0.29124832E-01 -0.44423944E-02 -0.16227256E-01
  0.10294748E-01  0.43798164E-02  0.14663819E-01
  0.11907011E-01  0.23270167E-02  0.23519575E-01
  0.16726854E-01 -0.16605593E-01 -0.98563305E-02
  0.81886296E-05 -0.84333706E-02  0.60121389E-02
  0.14739759E-01 -0.28665497E-01  0.15314561E-01
 -0.18412655E-01  0.18932673E-01 -0.11861073E-01
 -0.83705067E-03  0.39810788E-02  0.18651893E-01
 -0.31624560E-01 -0.97633863E-02 -0.17502022E-01
  0.32738599E-01 -0.27290235E-01  0.12589718E-01
  0.26677839E-01  0.21680401E-01  0.15731947E-01
 -0.19374659E-01 -0.13497913E-01  0.86236464E-02
 -0.25922000E-01 -0.75983586E-02 -0.41058948E-02
 -0.13736632E-01 -0.69424340E-02 -0.64860250E-02
 -0.42464080E-02 -0.10144343E-01 -0.42117307E-01
 -0.41112572E-02  0.87580136E-02  0.49766844E-02
  0.42202936E-02 -0.16304509E-01  0.10755341E-01
  0.36730033E-01 -0.22243352E-02  0.16487038E-01
 -0.97265574E-02  0.11381038E-01  0.15278703E-01
 -0.39628342E-01 -0.14772496E-01 -0.17077291E-01
 -0.12981640E-02 -0.94952383E-02  0.12638997E-01
  0.27643171E-01 -0.17514915E-01  0.10057387E-01
  0.62377614E-02 -0.49855947E-02  0.58521511E-02
  0.12864352E-01  0.31005416E-03 -0.14140617E-02
 -0.15544317E-02  0.12981754E-01  0.32634004E-02
 -0.83370542E-02 -0.89066869E-03  0.40442473E-02
 -0.20575544E-01  0.75128492E-02  0.25573797E-01
 -0.23343700E-01 -0.11774794E-02 -0.39859910E-01
 -0.26201392E-02  0.59928958E-02  0.81702935E-02
  0.92924465E-02  0.12243861E-01 -0.17541749E-01
 -0.68258078E-03 -0.12909004E-02 -0.16522006E-01
 -0.98268291E-02 -0.95829879E-02  0.22955558E-01
  0.78410568E-02 -0.35299061E-01  0.22791123E-01
  0.31176593E-02  0.31300182E-01 -0.62633227E-02
  0.15014670E-01 -0.32379243E-02 -0.19124205E-01
 -0.47979885E-02 -0.60611277E-02 -0.27762756E-01
 -0.20639889E-01 -0.13390126E-01  0.85175003E-03
 -0.42368709E-02 -0.10784138E-01  0.32744611E-02
 
           1
   2.00000000000000     
  0.10000000E+01  0.00000000E+00  0.00000000E+00  0.00000000E+00
  0.38557187E+00  0.13122917E+00  0.85608738E+00
  0.25604444E+00  0.17410875E+00  0.28163824E+00
  0.23293323E+00  0.33639847E+00  0.57020211E+00
  0.43841745E+00  0.80875400E+00  0.97618065E+00
  0.78858851E+00  0.31524398E+00  0.39056237E+00
  0.46937973E+00  0.93988039E+00  0.46561048E+00
  0.52420131E+00  0.22514402E+00  0.46161546E+00
  0.47634631E+00  0.69075038E+00  0.35187225E+00
  0.93828453E+00  0.60988071E+00  0.97423174E+00
  0.85430983E+00  0.31931877E+00  0.73174083E+00
  0.59440090E+00  0.95811338E+00  0.74913818E+00
  0.54124330E+00  0.58537665E+00  0.10587007E+00
  0.78345216E+00  0.72845359E-01  0.12517806E+00
  0.75342641E+00  0.86920248E+00  0.52105341E+00
  0.14716856E+00  0.83195627E+00  0.92373399E+00
  0.14008451E+00  0.28038438E+00  0.91701998E+00
  0.80783598E+00  0.61848130E+00  0.68417961E+00
  0.84941505E+00  0.18789006E-01  0.81757249E+00
  0.49685381E+00  0.68657733E+00  0.68951535E+00
  0.17216056E+00  0.69297643E-01  0.67388445E+00
  0.23743609E+00  0.88298225E+00  0.24435702E+00
  0.33757546E+00  0.40439311E+00  0.15338371E+00
  0.84689552E-01  0.62657148E+00  0.57963847E+00
  0.17612784E+00  0.56402247E+00  0.36096637E+00
  0.48958141E+00  0.56299946E-01  0.12276636E+00
  0.72653632E+00  0.77521771E+00  0.20639606E+00
  0.46972161E+00  0.39050549E+00  0.75726274E+00
  0.79841023E+00  0.40218238E+00  0.15239590E+00
  0.93644834E+00  0.97615802E+00  0.40080573E+00
  0.18887680E+00  0.53140043E+00  0.88594285E+00
  0.87377631E+00  0.49067987E+00  0.41305674E-01
  0.88413772E+00  0.27009908E-01  0.24137599E+00
  0.86211541E+00  0.23986337E+00  0.25640594E+00
  0.75188239E+00  0.88253673E+00  0.35261278E+00
  0.41384521E+00  0.22084358E+00  0.26803575E+00
  0.82998661E+00  0.67214253E+00  0.18266593E+00
  0.50500915E+00  0.62364729E-01  0.95141259E+00
  0.58538546E+00  0.92146953E-01  0.43476303E+00
  0.17176883E+00  0.85118918E+00  0.95217693E-01
  0.77757139E+00  0.46396692E+00  0.30325856E+00
  0.68329323E+00  0.74452605E+00  0.55901817E+00
  0.31158686E+00  0.36851310E+00  0.71592443E+00
  0.87703820E+00  0.49024002E+00  0.71882094E+00
  0.87628417E+00  0.65104834E+00  0.84016693E+00
  0.26939030E+00  0.15369162E+00  0.57513072E+00
  0.46731751E+00  0.82673311E+00  0.62704930E+00
  0.20971555E+00  0.26962371E+00  0.39267099E+00
  0.20756977E+00  0.93673242E+00  0.77377913E+00
  0.34196708E+00  0.88694900E+00  0.88616973E+00
  0.17426655E+00  0.17933529E+00  0.14114783E-01
  0.70187263E+00  0.98721286E+00  0.85259775E+00
  0.67242101E+00  0.49654767E+00  0.62054973E-01
  0.16461415E+00  0.75152942E+00  0.29228767E+00
  0.52598307E+00  0.88844984E+00  0.10703014E+00
  0.62574733E+00  0.32886033E+00  0.42337474E+00
  0.78021475E+00  0.88800272E+00  0.13839038E+00
  0.44376400E+00  0.63083912E+00  0.96731199E+00
  0.10111137E-01  0.76756948E+00  0.99750613E+00
  0.39600090E+00  0.20333234E+00  0.97529218E+00
  0.46872727E+00  0.43152860E+00  0.90584109E+00
  0.12721312E+00  0.32639631E+00  0.66760737E+00
  0.66792254E+00  0.65674268E+00  0.73246741E+00
  0.23709992E+00  0.36529280E+00  0.61516768E-02
  0.69152995E-01  0.90464849E+00  0.44462386E+00
  0.23530505E-01  0.50004824E+00  0.39175252E+00
  0.49578738E+00  0.38728317E+00  0.18281983E+00
  0.96513717E+00  0.12534845E+00  0.42947619E+00
  0.21294342E+00  0.29211590E+00  0.17072730E+00
  0.19634904E+00  0.49406678E+00  0.51067644E+00
  0.40751553E+00  0.78179308E+00  0.22926339E+00
  0.46208281E+00  0.43990111E-01  0.73782027E+00
  0.31521811E+00  0.89197251E+00  0.45039095E+00
  0.94241522E+00  0.92408146E+00  0.54421335E+00
  0.10225237E+00  0.59969119E+00  0.21943243E-01
  0.62797112E+00  0.95306194E+00  0.53267202E+00
  0.39173994E+00  0.60765243E+00  0.75872374E+00
  0.81130049E+00  0.15204840E+00  0.74402109E+00
  0.88727787E+00  0.33932192E+00  0.93747528E+00
  0.69033666E+00  0.22992622E+00  0.17883520E+00
  0.16191812E+00  0.27558978E-01  0.24870730E+00
  0.33871403E+00  0.64405002E+00  0.39134746E+00
  0.32964036E+00  0.59380703E+00  0.13066456E+00
  0.26962357E+00  0.19726973E+00  0.77320393E+00
  0.63620806E+00  0.26879444E-01  0.17198483E+00
  0.60026737E+00  0.74903418E+00  0.10112623E+00
  0.44359918E+00  0.32439149E+00  0.57057831E+00
  0.72053236E+00  0.37691844E+00  0.75146782E+00
  0.94012864E+00  0.69126684E+00  0.59786460E+00
  0.37678972E+00  0.83868775E-01  0.38894157E+00
  0.52968718E+00  0.22721553E+00  0.80590114E+00
  0.82928280E+00  0.89143795E-01  0.97128096E+00
  0.15528623E+00  0.52769538E+00  0.72510308E+00
  0.19150316E+00  0.73441280E+00  0.58512659E+00
  0.54674650E+00  0.82311510E+00  0.82979941E+00
  0.83462942E+00  0.29145492E+00  0.54227994E+00
  0.61767978E-01  0.42927968E+00  0.90053749E+00
  0.34582170E+00  0.74998173E-01  0.14073771E+00
  0.73522695E+00  0.92608538E+00  0.65716951E+00
  0.47505941E+00  0.61299742E+00  0.54764433E+00
  0.24054809E+00  0.69638158E+00  0.89331055E+00
  0.17402687E-01  0.11000595E+00  0.76767827E+00
  0.24671646E+00  0.46556998E+00  0.26562683E+00
  0.96733027E+00  0.90380930E+00  0.86793780E+00
  0.54781637E+00  0.80910258E+00  0.43985136E+00
  0.62165683E+00  0.61123177E+00  0.24116384E+00
  0.15325946E-03 -0.14377719E-03 -0.29683453E-03
  0.67128112E-03  0.44166611E-03 -0.18981187E-02
 -0.31252827E-03  0.93637534E-03 -0.59604015E-03
 -0.50730583E-03 -0.61946076E-03 -0.37805331E-03
  0.17204010E-02  0.83391843E-04 -0.65771524E-03
  0.29393299E-03 -0.83174496E-04 -0.13507619E-02
  0.73632432E-03 -0.80938602E-03 -0.35263775E-03
 -0.12541283E-02  0.17381328E-02  0.92858022E-03
 -0.39264352E-03  0.56777597E-03 -0.48750074E-03
  0.37253907E-03  0.60618683E-03  0.11424041E-02
 -0.36046869E-03 -0.13216871E-02 -0.68759695E-03
  0.92742642E-03  0.94060266E-03  0.73182213E-04
 -0.15314813E-03  0.24608730E-03  0.88446501E-04
 -0.21982854E-02 -0.41303826E-03  0.10634977E-02
 -0.13553432E-02 -0.36366013E-04 -0.79104449E-03
 -0.36879178E-03  0.39537718E-03 -0.17615951E-04
  0.17628192E-02  0.11260349E-02  0.34989208E-04
  0.65751441E-03 -0.38092767E-03 -0.99210267E-03
  0.26200625E-03 -0.70388117E-03  0.27192392E-03
 -0.84551012E-03 -0.88772058E-03  0.46283145E-03
 -0.23232496E-03 -0.64079627E-03  0.12673814E-02
  0.57966861E-03  0.16592400E-02  0.70888428E-05
 -0.10741743E-02  0.82545475E-03  0.32269950E-03
 -0.46908661E-04  0.82151978E-04  0.36829915E-03
 -0.93978198E-03 -0.17886784E-02  0.73404184E-03
  0.15254060E-02 -0.12093122E-03 -0.12784069E-03
  0.51604619E-03 -0.48369412E-03 -0.82143802E-03
  0.81717868E-04 -0.41208808E-04  0.64249322E-03
  0.56936321E-03 -0.53168042E-03  0.12408010E-02
 -0.21488612E-03  0.14400082E-03  0.66639044E-03
 -0.17028814E-02  0.21140323E-02  0.16039897E-02
  0.45636460E-02 -0.87751461E-04  0.48234298E-02
 -0.27807227E-02 -0.54199141E-02  0.10731053E-02
  0.35580382E-03  0.34873825E-03 -0.31850071E-02
  0.72687162E-03  0.47650194E-02  0.11738549E-02
 -0.23847769E-02  0.37658576E-03  0.15623244E-02
  0.22581084E-02  0.25383100E-03 -0.20055376E-03
  0.37513345E-02  0.13175506E-02  0.17346970E-02
  0.11520718E-02  0.74650328E-02 -0.62119281E-04
  0.46713712E-03  0.30015760E-02 -0.23839822E-02
 -0.22495974E-02  0.33520877E-02 -0.27109309E-02
  0.41506072E-02  0.21560597E-02 -0.11317477E-02
 -0.17520047E-02 -0.38117169E-05 -0.24012090E-02
 -0.17807242E-02  0.13125042E-02  0.13532921E-02
 -0.40708817E-03  0.11366107E-02  0.89131782E-03
  0.37687685E-02  0.10959122E-02 -0.84309902E-03
  0.64705389E-02 -0.18866293E-03  0.29146326E-02
  0.48793787E-02  0.15867848E-02  0.25258977E-02
 -0.15976713E-03  0.20266562E-02 -0.14536663E-02
 -0.26669474E-02 -0.46745646E-02  0.45433779E-03
  0.22249809E-02 -0.59275347E-03  0.47485773E-03
 -0.36964030E-02  0.35775497E-03 -0.21259322E-02
 -0.45483742E-02 -0.10592603E-02  0.43091512E-03
 -0.15312894E-02 -0.29447325E-02 -0.23781336E-02
 -0.28857213E-02 -0.29288621E-02 -0.29768805E-03
  0.13577389E-03 -0.17978433E-02  0.10547995E-02
  0.15095818E-02 -0.26443090E-02 -0.15139199E-02
 -0.26952528E-03 -0.39805235E-03 -0.37157431E-02
 -0.56665756E-02  0.16269003E-02 -0.43383720E-02
  0.28544220E-02  0.23448153E-03 -0.22917662E-02
  0.37042337E-02  0.34725114E-02  0.11506238E-02
 -0.24782081E-02  0.36609721E-02 -0.73759542E-03
 -0.22356735E-02 -0.17187484E-03 -0.37759607E-02
 -0.11897377E-02  0.49956378E-03  0.40215253E-02
 -0.35863715E-02 -0.22711830E-02  0.38877249E-02
 -0.22885293E-02 -0.44297800E-03 -0.72562014E-03
  0.45850629E-02 -0.38272960E-02  0.31460836E-02
 -0.50222491E-02 -0.56909118E-03 -0.29397670E-02
  0.16185511E-02  0.81996220E-03  0.23582407E-02
  0.20364147E-02  0.37665838E-03  0.36902230E-02
  0.26280958E-02 -0.25685166E-02 -0.13914964E-02
 -0.24565314E-03 -0.13991265E-02  0.11323646E-02
  0.31251257E-02 -0.47007135E-02  0.20242254E-02
 -0.30812937E-02  0.34387093E-02 -0.17068785E-02
  0.22170048E-03  0.43897757E-03  0.30749624E-02
 -0.50649098E-02 -0.13139515E-02 -0.31465330E-02
  0.54764700E-02 -0.46297431E-02  0.21242631E-02
  0.44916562E-02  0.39052692E-02  0.29527074E-02
 -0.33503179E-02 -0.23959315E-02  0.16773791E-02
 -0.44001892E-02 -0.12730176E-02 -0.81402211E-03
 -0.21492584E-02 -0.10403313E-02 -0.10841055E-02
 -0.10237401E-02 -0.12925447E-02 -0.71000643E-02
 -0.69108466E-04  0.16551525E-02  0.80462259E-03
  0.39226367E-03 -0.29147072E-02  0.15870473E-02
  0.59997623E-02  0.20210031E-03  0.29791665E-02
 -0.16597633E-02  0.20009133E-02  0.25718310E-02
 -0.61751474E-02 -0.24974943E-02 -0.28900105E-02
 -0.59288596E-04 -0.15250973E-02  0.20712919E-02
  0.45378874E-02 -0.27959263E-02  0.14761387E-02
  0.13500222E-02 -0.12402399E-02  0.12039447E-02
  0.20537430E-02  0.12435379E-03 -0.18434820E-03
 -0.14869346E-03  0.18980869E-02  0.44732411E-03
 -0.11193014E-02  0.77215243E-04  0.71005094E-03
 -0.33958586E-02  0.12669888E-02  0.41497589E-02
 -0.38786557E-02 -0.36462571E-03 -0.65891516E-02
 -0.49146686E-03  0.86949253E-03  0.14298971E-02
  0.19607208E-02  0.22582648E-02 -0.31071292E-02
 -0.40526160E-03 -0.44404703E-03 -0.36624441E-02
 -0.18290412E-02 -0.16508200E-02  0.37907256E-02
  0.16196500E-02 -0.59840203E-02  0.38591470E-02
  0.19406109E-03  0.52634142E-02 -0.83785236E-03
  0.25507479E-02 -0.49369400E-03 -0.33682209E-02
 -0.72217999E-03 -0.12470254E-02 -0.44968271E-02
 -0.33162910E-02 -0.19177903E-02  0.65162249E-03
 -0.43219962E-03 -0.19342814E-02  0.13367954E-03
  0.00000000E+00  0.00000000E+00  0.00000000E+00
  0.00000000E+00  0.00000000E+00  0.00000000E+00
  0.00000000E+00  0.00000000E+00  0.00000000E+00
  0.00000000E+00  0.00000000E+00  0.00000000E+00
  0.00000000E+00  0.00000000E+00  0.00000000E+00
  0.00000000E+00  0.00000000E+00  0.00000000E+00
  0.00000000E+00  0.00000000E+00  0.00000000E+00
  0.00000000E+00  0.00000000E+00  0.00000000E+00
  0.00000000E+00  0.00000000E+00  0.00000000E+00
  0.00000000E+00  0.00000000E+00  0.00000000E+00
  0.00000000E+00  0.00000000E+00  0.00000000E+00
  0.00000000E+00  0.00000000E+00  0.00000000E+00
  0.00000000E+00  0.00000000E+00  0.00000000E+00
  0.00000000E+00  0.00000000E+00  0.00000000E+00
  0.00000000E+00  0.00000000E+00  0.00000000E+00
  0.00000000E+00  0.00000000E+00  0.00000000E+00
  0.00000000E+00  0.00000000E+00  0.00000000E+00
  0.00000000E+00  0.00000000E+00  0.00000000E+00
  0.00000000E+00  0.00000000E+00  0.00000000E+00
  0.00000000E+00  0.00000000E+00  0.00000000E+00
  0.00000000E+00  0.00000000E+00  0.00000000E+00
  0.00000000E+00  0.00000000E+00  0.00000000E+00
  0.00000000E+00  0.00000000E+00  0.00000000E+00
  0.00000000E+00  0.00000000E+00  0.00000000E+00
  0.00000000E+00  0.00000000E+00  0.00000000E+00
  0.00000000E+00  0.00000000E+00  0.00000000E+00
  0.00000000E+00  0.00000000E+00  0.00000000E+00
  0.00000000E+00  0.00000000E+00  0.00000000E+00
  0.00000000E+00  0.00000000E+00  0.00000000E+00
  0.00000000E+00  0.00000000E+00  0.00000000E+00
  0.00000000E+00  0.00000000E+00  0.00000000E+00
  0.00000000E+00  0.00000000E+00  0.00000000E+00
  0.00000000E+00  0.00000000E+00  0.00000000E+00
  0.00000000E+00  0.00000000E+00  0.00000000E+00
  0.00000000E+00  0.00000000E+00  0.00000000E+00
  0.00000000E+00  0.00000000E+00  0.00000000E+00
  0.00000000E+00  0.00000000E+00  0.00000000E+00
  0.00000000E+00  0.00000000E+00  0.00000000E+00
  0.00000000E+00  0.00000000E+00  0.00000000E+00
  0.00000000E+00  0.00000000E+00  0.00000000E+00
  0.00000000E+00  0.00000000E+00  0.00000000E+00
  0.00000000E+00  0.00000000E+00  0.00000000E+00
  0.00000000E+00  0.00000000E+00  0.00000000E+00
  0.00000000E+00  0.00000000E+00  0.00000000E+00
  0.00000000E+00  0.00000000E+00  0.00000000E+00
  0.00000000E+00  0.00000000E+00  0.00000000E+00
  0.00000000E+00  0.00000000E+00  0.00000000E+00
  0.00000000E+00  0.00000000E+00  0.00000000E+00
  0.00000000E+00  0.00000000E+00  0.00000000E+00
  0.00000000E+00  0.00000000E+00  0.00000000E+00
  0.00000000E+00  0.00000000E+00  0.00000000E+00
  0.00000000E+00  0.00000000E+00  0.00000000E+00
  0.00000000E+00  0.00000000E+00  0.00000000E+00
  0.00000000E+00  0.00000000E+00  0.00000000E+00
  0.00000000E+00  0.00000000E+00  0.00000000E+00
  0.00000000E+00  0.00000000E+00  0.00000000E+00
  0.00000000E+00  0.00000000E+00  0.00000000E+00
  0.00000000E+00  0.00000000E+00  0.00000000E+00
  0.00000000E+00  0.00000000E+00  0.00000000E+00
  0.00000000E+00  0.00000000E+00  0.00000000E+00
  0.00000000E+00  0.00000000E+00  0.00000000E+00
  0.00000000E+00  0.00000000E+00  0.00000000E+00
  0.00000000E+00  0.00000000E+00  0.00000000E+00
  0.00000000E+00  0.00000000E+00  0.00000000E+00
  0.00000000E+00  0.00000000E+00  0.00000000E+00
  0.00000000E+00  0.00000000E+00  0.00000000E+00
  0.00000000E+00  0.00000000E+00  0.00000000E+00
  0.00000000E+00  0.00000000E+00  0.00000000E+00
  0.00000000E+00  0.00000000E+00  0.00000000E+00
  0.00000000E+00  0.00000000E+00  0.00000000E+00
  0.00000000E+00  0.00000000E+00  0.00000000E+00
  0.00000000E+00  0.00000000E+00  0.00000000E+00
  0.00000000E+00  0.00000000E+00  0.00000000E+00
  0.00000000E+00  0.00000000E+00  0.00000000E+00
  0.00000000E+00  0.00000000E+00  0.00000000E+00
  0.00000000E+00  0.00000000E+00  0.00000000E+00
  0.00000000E+00  0.00000000E+00  0.00000000E+00
  0.00000000E+00  0.00000000E+00  0.00000000E+00
  0.00000000E+00  0.00000000E+00  0.00000000E+00
  0.00000000E+00  0.00000000E+00  0.00000000E+00
  0.00000000E+00  0.00000000E+00  0.00000000E+00
  0.00000000E+00  0.00000000E+00  0.00000000E+00
  0.00000000E+00  0.00000000E+00  0.00000000E+00
  0.00000000E+00  0.00000000E+00  0.00000000E+00
  0.00000000E+00  0.00000000E+00  0.00000000E+00
  0.00000000E+00  0.00000000E+00  0.00000000E+00
  0.00000000E+00  0.00000000E+00  0.00000000E+00
  0.00000000E+00  0.00000000E+00  0.00000000E+00
  0.00000000E+00  0.00000000E+00  0.00000000E+00
  0.00000000E+00  0.00000000E+00  0.00000000E+00
  0.00000000E+00  0.00000000E+00  0.00000000E+00
  0.00000000E+00  0.00000000E+00  0.00000000E+00
  0.00000000E+00  0.00000000E+00  0.00000000E+00
  0.00000000E+00  0.00000000E+00  0.00000000E+00
  0.00000000E+00  0.00000000E+00  0.00000000E+00
  0.00000000E+00  0.00000000E+00  0.00000000E+00
  0.00000000E+00  0.00000000E+00  0.00000000E+00
  0.00000000E+00  0.00000000E+00  0.00000000E+00
  0.00000000E+00  0.00000000E+00  0.00000000E+00
  0.00000000E+00  0.00000000E+00  0.00000000E+00
  0.00000000E+00  0.00000000E+00  0.00000000E+00
  0.00000000E+00  0.00000000E+00  0.00000000E+00
  0.00000000E+00  0.00000000E+00  0.00000000E+00
  0.00000000E+00  0.00000000E+00  0.00000000E+00
  0.00000000E+00  0.00000000E+00  0.00000000E+00
