Built with Packmol                      
   1.00000000000000     
    11.8284812099999996    0.0000000000000000    0.0000000000000000
     0.0000000000000000   11.8284812099999996    0.0000000000000000
     0.0000000000000000    0.0000000000000000   11.8284812099999996
   Ta   O 
    30    75
Direct
  0.4592961184043066  0.0610074817841875  0.5947261316506145
  0.3186542432898605  0.1700698510249322  0.4488000471756919
  0.8677033137998527  0.3168761746485115  0.8046775409032867
  0.4012447456214016  0.7794948339354983  0.8544156294405573
  0.9743677494181358  0.2540470310942469  0.4001889525447397
  0.6971353611869284  0.2356611570354946  0.6428193827176391
  0.6759909757950231  0.2125575664437537  0.3400323336815363
  0.4570909967788020  0.3808546079512485  0.1811292819064201
  0.2357528200791973  0.5133858386797793  0.3770797067439463
  0.4478701298777788  0.3946677201750614  0.6094986401994025
  0.4315788879047724  0.1297699845955519  0.9224689378542711
  0.1293551182837661  0.4040601662314348  0.9288636357221214
  0.4753450166372089  0.3821881663798413  0.8644660595702486
  0.0420699053876066  0.8381353045272043  0.3505361085289820
  0.8301648157123521  0.8673818241913015  0.9464851600243051
  0.1427650804174304  0.2103089764766056  0.6873316858743875
  0.6883986580795400  0.4774472204659083  0.9617948390483182
  0.0503482839064113  0.0169980657881400  0.8392298469365874
  0.8744855781710041  0.8735266653363677  0.6091762287685272
  0.0967209402302473  0.7059692712552076  0.8188875847921725
  0.6334108703981707  0.7365984152683701  0.4252723766180155
  0.1419997203761973  0.3231332099083470  0.1987762083199407
  0.9637375695680432  0.5287985635145088  0.5470207526113111
  0.5921890090267852  0.7666079180253363  0.0614119545919795
  0.5237727134288361  0.9937496122838285  0.2967640629418295
  0.7177959708001896  0.1727525548508854  0.9685904061278194
  0.6584639387467246  0.6835024347967734  0.7053740273477019
  0.7090701407980979  0.4969545698404489  0.2491196689960704
  0.3070327072194569  0.8349150916592819  0.1614340853011865
  0.0274963272049231  0.6523672663607423  0.1127145723190162
  0.0042123343510062  0.2635903316501449  0.2559589643313115
  0.3172567452660006  0.4826462016271266  0.4885710833794721
  0.5102266325077375  0.2537810723341107  0.2359428228576949
  0.9939945562069952  0.8923445555382891  0.5264890035491064
  0.1491011245501836  0.2905090061160910  0.0491590517812513
  0.8897439861575787  0.5037248812897194  0.1891440843740731
  0.3557402935817367  0.2633565383330714  0.8553255741908419
  0.6753316684679168  0.0074560816543046  0.2609097639272698
  0.5888032759719926  0.5280147183525529  0.8483709503296474
  0.4679585000714647  0.4157979240870739  0.0254184002172750
  0.4149044766548480  0.9588619002502284  0.6727616415019179
  0.3372941139853904  0.1628604730714330  0.6225860711271600
  0.5710707027537554  0.3601372405030046  0.7324296226055760
  0.3421300981884820  0.9482184787718326  0.9391469282784468
  0.2741218784982865  0.4846223468070288  0.9125469451391452
  0.8086664077686597  0.9868727010412798  0.5539087773228664
  0.3202485175547466  0.3025353455713921  0.5113338589641112
  0.8380729969229329  0.4420225237757231  0.6917286139734498
  0.2590411225533119  0.7562736964963725  0.7928018377740718
  0.7382583476295150  0.2153034494732690  0.8019863701969714
  0.5740809995657508  0.1463569544306736  0.4162355608543046
  0.6220136353488480  0.6902474637853616  0.5646193273463692
  0.4419312107194021  0.7743870022711820  0.2308084146768814
  0.3668198014863792  0.9681181541502947  0.1941587802431347
  0.5957151678605815  0.2934721011928449  0.5476248858478354
  0.5659773812926455  0.0942148246891422  0.9571862487514343
  0.5907215036058113  0.9075834339184208  0.1273372201403414
  0.9305835791171173  0.4180721173128359  0.4522580123552635
  0.2189823921224160  0.2228970068468321  0.2785909365565582
  0.4606597698102129  0.7065901494890285  0.9805231932757416
  0.2145001645641481  0.8571543637251530  0.2830851963061331
  0.7912205148487628  0.6331742084337314  0.7486816355188221
  0.1654513733866077  0.0566227510289928  0.9217218665144501
  0.6852529960095960  0.6201796917282172  0.3367001044037035
  0.8602450083499479  0.6409664882922791  0.5515692182721977
  0.2096310377933970  0.2981735643662962  0.7762732906581377
  0.0422868629929339  0.9724590530736308  0.2983756319597307
  0.8269799247088014  0.1841983816609919  0.3869992010079143
  0.0594405260979647  0.2677079325890727  0.5463851344116731
  0.8780595704980995  0.2580873255036506  0.9558927627457503
  0.5900935617454585  0.1104472371089534  0.6768721933715727
  0.0496757130559096  0.6178154934638581  0.9260437583883147
  0.9544265296188075  0.7789640415045600  0.2157534591402931
  0.1365799655911316  0.4044649282386990  0.3451939197278903
  0.2002091670329945  0.7432190808420686  0.0766151939563413
  0.5128590577471561  0.7870951677497753  0.7616155697650837
  0.8328388799955188  0.4540852362190723  0.9308031280321402
  0.3822317288891847  0.1724733305335431  0.0526664655654768
  0.3864722459346656  0.4572168119338167  0.7622998642204117
  0.3082707429882030  0.4036942842967024  0.1985896945644899
  0.5451057999982479  0.4951536575358397  0.5858235614473821
  0.0099812488347661  0.3828625441768342  0.8160616037324929
  0.2139253599188593  0.0765073779182024  0.4959547394278811
  0.8885450654131997  0.9947930836947123  0.9613359646930996
  0.7657141822191157  0.8175740084607174  0.4440339288167147
  0.4954862106801307  0.5048512754437406  0.2671150910038335
  0.6790403585089630  0.8655288717451020  0.7609404467337954
  0.8640460322911840  0.2269841862661285  0.6145628532662119
  0.7080695754312321  0.1593311037082213  0.1250768482222956
  0.6773483632911547  0.8464091826090210  0.9424824304833250
  0.0040668157859723  0.1951935566676603  0.8001513415836049
  0.6541537843210909  0.6092951231136364  0.0678950298108544
  0.0241608803452526  0.6115167230156995  0.7149770478199051
  0.4224356964929010  0.0818161309931241  0.3902610644821820
  0.7488432697159472  0.3673721129132362  0.3544850271739971
  0.1613406921482505  0.0449158775795175  0.7303120819452058
  0.5574506398176846  0.9248593935409928  0.4322376661670524
  0.9004720727947778  0.9073552646933860  0.7644784181371668
  0.0982939598458318  0.5791303898986579  0.4579542919653442
  0.1855004798705353  0.6120892107583840  0.2320114043269204
  0.8950639208855167  0.7444242334323010  0.0321052229247800
  0.0708011846488913  0.4781815148305502  0.0546033737130256
  0.0415861813452841  0.8488991663233869  0.8819598123888978
  0.7146538131257556  0.4065790932963726  0.0998589904932325
  0.6432611305416802  0.2996808690217755  0.9430507216510874
 
 -0.93695710E-02  0.53602959E-02  0.11832904E-02
 -0.32601246E-03 -0.21580737E-02 -0.18515180E-02
 -0.57543947E-03  0.17464980E-02 -0.62903778E-02
  0.17711004E-02 -0.34683291E-02 -0.19790472E-02
 -0.41523237E-02 -0.68090766E-02 -0.58891959E-03
  0.74601704E-02  0.33306562E-03  0.54112479E-02
  0.54413364E-03 -0.29365071E-02 -0.48195855E-02
  0.39018292E-03 -0.24604666E-02  0.16876448E-01
  0.21005708E-02  0.15952400E-02 -0.80293846E-02
 -0.35744332E-02  0.85485443E-02  0.59622274E-02
 -0.46333129E-02 -0.55506810E-03 -0.22776733E-02
 -0.34855241E-02 -0.11442662E-01  0.14308840E-02
  0.54274064E-02  0.27601078E-02  0.20914060E-02
 -0.69768442E-02 -0.12747454E-02 -0.59165285E-02
  0.30199269E-02  0.80567213E-02  0.53114367E-02
 -0.25862320E-04 -0.90623068E-02 -0.53504740E-02
  0.28583844E-02 -0.11944265E-02  0.50428600E-02
 -0.73502784E-02 -0.27450124E-02 -0.54605133E-02
  0.17436531E-02  0.62936989E-03 -0.16823789E-02
  0.51011518E-02  0.50837063E-02 -0.37605291E-02
 -0.95246530E-03  0.48154219E-02 -0.49519162E-02
  0.19950480E-02 -0.34322749E-03 -0.78684065E-03
  0.47479534E-02 -0.14647060E-02  0.80500674E-02
 -0.36470062E-02  0.47643059E-02  0.80612642E-02
  0.33511709E-02 -0.34266540E-02 -0.67415574E-02
 -0.13468578E-02 -0.44678782E-02 -0.40233010E-03
 -0.13973133E-02 -0.64256284E-02  0.21190614E-02
  0.25290189E-02  0.34021347E-03 -0.40976301E-04
  0.10029157E-01  0.33559826E-03  0.21779777E-02
 -0.53915054E-02  0.44918386E-02  0.31792726E-02
 -0.67364481E-02 -0.23859773E-01 -0.15633879E-01
 -0.57392288E-02 -0.20875678E-01  0.10506961E-01
  0.15572847E-01  0.53369568E-03  0.12707781E-01
 -0.18653338E-02 -0.14165307E-01  0.79746807E-02
 -0.22996591E-01  0.62546782E-02  0.12601375E-01
 -0.52194540E-02 -0.27852125E-02 -0.11421955E-01
  0.14322067E-02 -0.68990444E-02 -0.37034461E-02
 -0.15236525E-01 -0.18478350E-01 -0.30832128E-01
  0.21486423E-01 -0.84636323E-03  0.45366220E-01
  0.30786537E-01  0.16176776E-01  0.10045187E-01
 -0.18646166E-01  0.15475310E-01  0.10555360E-02
 -0.34347265E-02  0.11357256E-01  0.13005205E-01
  0.10557220E-01 -0.43993865E-02 -0.19802424E-02
  0.16102130E-01 -0.33074515E-01  0.14257041E-02
 -0.15434142E-01 -0.20492303E-01  0.16503364E-02
 -0.18894522E-01  0.29725352E-01  0.38999550E-02
  0.72592867E-02  0.16494358E-01 -0.46246502E-02
  0.84308231E-02 -0.19689036E-01  0.17500480E-01
 -0.33560060E-02  0.23056211E-01  0.13347381E-01
  0.11533145E-01 -0.26829519E-02  0.35501942E-01
 -0.82581253E-02 -0.12119270E-01 -0.84806403E-02
 -0.56167687E-02 -0.52498704E-03 -0.15052873E-01
 -0.10906815E-01  0.37006528E-01 -0.12444443E-01
 -0.22699802E-01  0.25956779E-01 -0.30599543E-02
  0.75686799E-02 -0.26658352E-01 -0.20637563E-01
  0.66888288E-02  0.12808186E-01 -0.35723907E-02
  0.15327045E-01 -0.70051766E-02  0.23210323E-01
  0.14570571E-01 -0.22130953E-03 -0.15249444E-01
 -0.12994443E-01 -0.19177924E-02  0.16828862E-01
  0.10989996E-01 -0.14997211E-01  0.10982165E-01
 -0.79705060E-02 -0.15904400E-01  0.11682488E-01
  0.10309172E-01  0.88118667E-03  0.23447939E-02
  0.14348445E-01  0.19991833E-02  0.16746692E-01
 -0.45881366E-02  0.20786768E-01 -0.23952031E-01
  0.10538119E-01 -0.14156784E-01 -0.18351648E-01
 -0.27299304E-01  0.52233823E-02 -0.23902549E-01
  0.96122584E-02  0.44536122E-02 -0.35205597E-02
 -0.23716813E-02 -0.70791260E-02 -0.20311568E-01
  0.24466310E-01  0.74749104E-02 -0.29892515E-01
 -0.68910062E-02  0.54741445E-02  0.92873657E-02
  0.37004724E-01  0.39643015E-01  0.54522995E-02
  0.34806767E-02  0.13524044E-01  0.55325959E-03
  0.96136198E-02  0.23137574E-02 -0.10113510E-01
  0.71991783E-02  0.21171491E-01  0.20889316E-01
  0.23685492E-01  0.20704093E-01 -0.14166504E-01
 -0.30546123E-01 -0.32686964E-01 -0.16068725E-01
 -0.23697779E-01  0.14590887E-01 -0.12097501E-01
  0.12357555E-01 -0.56398246E-02  0.18141303E-01
 -0.12064966E-01 -0.30930396E-02 -0.11402597E-01
 -0.81866957E-02  0.96271127E-02 -0.26263141E-01
  0.14476282E-01  0.11019516E-01  0.13225594E-01
  0.11711308E-02 -0.24422344E-02  0.11601612E-01
 -0.20915571E-01 -0.11050544E-01  0.80245643E-02
  0.35885211E-01  0.38041311E-01  0.12047333E-01
 -0.78652826E-02  0.49009354E-03  0.70229295E-02
 -0.14655597E-01  0.27864981E-01 -0.80485787E-02
  0.29268196E-02  0.86849117E-02 -0.17620057E-01
  0.23162190E-01  0.21297708E-01  0.95661528E-02
 -0.21786451E-01  0.12479051E-01  0.13888111E-01
 -0.85179527E-02 -0.86712654E-02 -0.26825034E-02
  0.11092458E-01  0.19994338E-01 -0.14308548E-01
 -0.14999796E-01  0.56555035E-02 -0.17144725E-01
 -0.10692636E-01  0.14437234E-01  0.53305295E-02
 -0.30016045E-02 -0.17293892E-01 -0.14786348E-01
 -0.17482314E-01 -0.62147670E-02 -0.65650201E-02
  0.33821504E-01  0.90417504E-02 -0.79117981E-02
  0.15164054E-01 -0.70113209E-02 -0.14619664E-02
  0.23332895E-01 -0.59341276E-04 -0.29461807E-01
 -0.69186291E-02  0.13637391E-01  0.68655469E-02
 -0.14614745E-01 -0.20357245E-02  0.24274793E-01
  0.31705577E-02 -0.91275487E-02  0.24141820E-02
 -0.30979925E-01  0.88413475E-02 -0.73906293E-02
  0.15032253E-01 -0.35016850E-03 -0.64222661E-02
 -0.16014458E-01 -0.33388026E-01  0.94067150E-02
 -0.28525490E-01 -0.17671250E-01 -0.23316061E-01
 
           1
   2.00000000000000     
  0.10000000E+01  0.00000000E+00  0.00000000E+00  0.00000000E+00
  0.45771188E+00  0.61913819E-01  0.59492621E+00
  0.31859912E+00  0.16970496E+00  0.44848699E+00
  0.86760602E+00  0.31717148E+00  0.80361394E+00
  0.40154421E+00  0.77890840E+00  0.85408101E+00
  0.97366566E+00  0.25289573E+00  0.40008938E+00
  0.69839675E+00  0.23571747E+00  0.64373433E+00
  0.67608298E+00  0.21206105E+00  0.33921742E+00
  0.45715697E+00  0.38043858E+00  0.18398281E+00
  0.23610799E+00  0.51365557E+00  0.37572207E+00
  0.44726575E+00  0.39611314E+00  0.61050675E+00
  0.43079547E+00  0.12967613E+00  0.92208382E+00
  0.12876577E+00  0.40212540E+00  0.92910557E+00
  0.47626270E+00  0.38265485E+00  0.86481968E+00
  0.40890237E-01  0.83791977E+00  0.34953572E+00
  0.83067544E+00  0.86874408E+00  0.94738324E+00
  0.14276071E+00  0.20877669E+00  0.68642701E+00
  0.68888196E+00  0.47724526E+00  0.96264750E+00
  0.49105474E-01  0.16533930E-01  0.83830656E+00
  0.87478040E+00  0.87363308E+00  0.60889177E+00
  0.97583460E-01  0.70682884E+00  0.81825174E+00
  0.63324982E+00  0.73741262E+00  0.42443509E+00
  0.14233705E+00  0.32307518E+00  0.19864317E+00
  0.96454037E+00  0.52855091E+00  0.54838189E+00
  0.59157236E+00  0.76741348E+00  0.62774981E-01
  0.52433934E+00  0.99317022E+00  0.29562418E+00
  0.71756824E+00  0.17199711E+00  0.96852238E+00
  0.65822768E+00  0.68241597E+00  0.70573233E+00
  0.70949776E+00  0.49701209E+00  0.24911274E+00
  0.30872847E+00  0.83497184E+00  0.16180235E+00
  0.26584713E-01  0.65312676E+00  0.11325213E+00
  0.30733127E-02  0.25955604E+00  0.25331553E+00
  0.31628634E+00  0.47911647E+00  0.49034764E+00
  0.51285974E+00  0.25387131E+00  0.23809150E+00
  0.99367916E+00  0.88994944E+00  0.52783739E+00
  0.14521278E+00  0.29156657E+00  0.51289735E-01
  0.88886146E+00  0.50325395E+00  0.18721282E+00
  0.35598246E+00  0.26219002E+00  0.85469938E+00
  0.67275542E+00  0.43316992E-02  0.25569656E+00
  0.59243627E+00  0.52787161E+00  0.85604163E+00
  0.47316399E+00  0.41853315E+00  0.27116875E-01
  0.41175172E+00  0.96147852E+00  0.67294012E+00
  0.33671336E+00  0.16478080E+00  0.62478504E+00
  0.57285575E+00  0.35939338E+00  0.73209480E+00
  0.34485270E+00  0.94262613E+00  0.93938799E+00
  0.27151222E+00  0.48115744E+00  0.91282599E+00
  0.80547166E+00  0.99189877E+00  0.55456820E+00
  0.32147594E+00  0.30532427E+00  0.51055191E+00
  0.83949851E+00  0.43869343E+00  0.69468765E+00
  0.25847368E+00  0.76017212E+00  0.79505866E+00
  0.74020841E+00  0.21484981E+00  0.80798916E+00
  0.57268469E+00  0.14430779E+00  0.41480163E+00
  0.62106393E+00  0.69015870E+00  0.56207414E+00
  0.44008705E+00  0.78064419E+00  0.22870427E+00
  0.36298164E+00  0.97250702E+00  0.19364139E+00
  0.59699491E+00  0.28896462E+00  0.54413542E+00
  0.56710835E+00  0.96380477E-01  0.95658222E+00
  0.59331305E+00  0.90639897E+00  0.13126170E+00
  0.93304722E+00  0.41803470E+00  0.44967958E+00
  0.21678525E+00  0.22257274E+00  0.28143642E+00
  0.46251800E+00  0.70405437E+00  0.98238010E+00
  0.21315248E+00  0.85446519E+00  0.28506051E+00
  0.79296362E+00  0.63332320E+00  0.74907810E+00
  0.16787746E+00  0.56960780E-01  0.92455345E+00
  0.68447722E+00  0.62369439E+00  0.33265021E+00
  0.86202683E+00  0.63857281E+00  0.54846626E+00
  0.20501518E+00  0.29905675E+00  0.77223177E+00
  0.43912136E-01  0.97321209E+00  0.29778036E+00
  0.82657891E+00  0.18300142E+00  0.38356485E+00
  0.63577373E-01  0.26897182E+00  0.54133081E+00
  0.87689442E+00  0.25901291E+00  0.95746310E+00
  0.59635045E+00  0.11715021E+00  0.67779409E+00
  0.50264238E-01  0.62010219E+00  0.92613731E+00
  0.95605203E+00  0.77935526E+00  0.21404343E+00
  0.13779723E+00  0.40804468E+00  0.34872596E+00
  0.20421399E+00  0.74671980E+00  0.74219873E-01
  0.50769421E+00  0.78156834E+00  0.75889861E+00
  0.82883198E+00  0.45655231E+00  0.92875764E+00
  0.38432119E+00  0.17151973E+00  0.55733859E-01
  0.38443226E+00  0.45669383E+00  0.76037187E+00
  0.30688651E+00  0.40532207E+00  0.19414903E+00
  0.54755350E+00  0.49701687E+00  0.58805979E+00
  0.10179268E-01  0.38244960E+00  0.81802324E+00
  0.21038888E+00  0.74638914E-01  0.49731156E+00
  0.89461266E+00  0.12252385E-02  0.96337297E+00
  0.76438429E+00  0.81765688E+00  0.44522139E+00
  0.49300819E+00  0.50956278E+00  0.26575421E+00
  0.67953524E+00  0.86699735E+00  0.75796119E+00
  0.86796237E+00  0.23058528E+00  0.61618033E+00
  0.70438585E+00  0.16144110E+00  0.12742510E+00
  0.67590812E+00  0.84494302E+00  0.94202886E+00
  0.59423665E-02  0.19857427E+00  0.79773200E+00
  0.65161757E+00  0.61025137E+00  0.64996141E-01
  0.22352933E-01  0.61395782E+00  0.71587835E+00
  0.42192817E+00  0.78892021E-01  0.38776094E+00
  0.74588730E+00  0.36632130E+00  0.35337499E+00
  0.16705935E+00  0.46444688E-01  0.72897433E+00
  0.56001463E+00  0.92367390E+00  0.43199047E+00
  0.90441728E+00  0.90734523E+00  0.75949692E+00
  0.97124134E-01  0.58143625E+00  0.45911514E+00
  0.18302937E+00  0.61174500E+00  0.23611587E+00
  0.89560001E+00  0.74288092E+00  0.32513421E-01
  0.65562993E-01  0.47967644E+00  0.53353741E-01
  0.44127886E-01  0.84883996E+00  0.88087391E+00
  0.71194603E+00  0.40093373E+00  0.10144951E+00
  0.63843794E+00  0.29669295E+00  0.93910836E+00
 -0.16310265E-02  0.86330221E-03  0.23989025E-03
  0.21886122E-04 -0.37112658E-03 -0.26293843E-03
 -0.13093878E-03  0.27492679E-03 -0.10495746E-02
  0.34292226E-03 -0.63316308E-03 -0.36562886E-03
 -0.67399444E-03 -0.11746267E-02 -0.16961801E-03
  0.12316843E-02  0.66162479E-04  0.89496372E-03
  0.62851156E-04 -0.50825178E-03 -0.74864234E-03
  0.73257764E-04 -0.44699796E-03  0.28761250E-02
  0.41638047E-03  0.21756741E-03 -0.12838486E-02
 -0.58788504E-03  0.14598198E-02  0.99371661E-03
 -0.68637166E-03 -0.63424603E-04 -0.38178407E-03
 -0.62218069E-03 -0.19486493E-02  0.24296648E-03
  0.94203090E-03  0.46107118E-03  0.35643633E-03
 -0.11961368E-02 -0.22504105E-03 -0.97994749E-03
  0.49186298E-03  0.14409607E-02  0.94315585E-03
  0.34297719E-04 -0.14797355E-02 -0.86955807E-03
  0.47605350E-03 -0.20604655E-03  0.83294569E-03
 -0.12458765E-02 -0.47447662E-03 -0.93368209E-03
  0.34183527E-03  0.13907424E-03 -0.31236909E-03
  0.85298518E-03  0.83903265E-03 -0.61508293E-03
 -0.18119250E-03  0.74321326E-03 -0.80885581E-03
  0.31155674E-03 -0.71889759E-04 -0.12777109E-03
  0.79746255E-03 -0.28213567E-03  0.13121499E-02
 -0.60576054E-03  0.79841395E-03  0.13662702E-02
  0.55943484E-03 -0.56196178E-03 -0.11035695E-02
 -0.26050591E-03 -0.74042991E-03 -0.10974792E-03
 -0.24333946E-03 -0.11140435E-02  0.24943908E-03
  0.37665338E-03  0.11397961E-03  0.32483034E-04
  0.16958730E-02  0.83536823E-04  0.36319321E-03
 -0.92937675E-03  0.76709836E-03  0.53887686E-03
 -0.97852516E-03 -0.39588706E-02 -0.23219167E-02
 -0.15328293E-02 -0.35754800E-02  0.11201283E-02
  0.22865774E-02  0.49958062E-03  0.18470872E-02
 -0.94581110E-03 -0.22366262E-02  0.18756422E-02
 -0.39480788E-02  0.12075429E-02  0.24630685E-02
 -0.65483776E-03 -0.75352811E-03 -0.20673684E-02
 -0.31082451E-03 -0.11349743E-02 -0.67414938E-03
 -0.25259263E-02 -0.33936402E-02 -0.54303430E-02
  0.37040107E-02 -0.28211572E-03  0.77703562E-02
  0.50760287E-02  0.27022970E-02  0.18097643E-02
 -0.28478571E-02  0.33504553E-02 -0.34560212E-03
 -0.84395496E-03  0.20590763E-02  0.19265351E-02
  0.17879193E-02 -0.40864818E-03 -0.36546334E-03
  0.23965805E-02 -0.54133902E-02  0.41270347E-03
 -0.21432731E-02 -0.33027744E-02  0.18633120E-03
 -0.29671151E-02  0.46215208E-02  0.69763526E-03
  0.10754058E-02  0.21438328E-02 -0.92758067E-03
  0.14169033E-02 -0.31343344E-02  0.29843984E-02
 -0.39237509E-03  0.40751735E-02  0.23198475E-02
  0.20114719E-02 -0.26854464E-03  0.62162951E-02
 -0.14440232E-02 -0.18769710E-02 -0.18266343E-02
 -0.73256205E-03  0.10021546E-04 -0.20871927E-02
 -0.19583178E-02  0.63931683E-02 -0.20557098E-02
 -0.41412640E-02  0.38979813E-02 -0.57391746E-03
  0.15168120E-02 -0.46832602E-02 -0.31799881E-02
  0.30984296E-03  0.23504938E-02 -0.63783626E-03
  0.27058985E-02 -0.96646953E-03  0.38823039E-02
  0.25354470E-02  0.42211720E-03 -0.22312975E-02
 -0.23595327E-02 -0.57010295E-04  0.26880179E-02
  0.17752740E-02 -0.25615970E-02  0.16898240E-02
 -0.10093242E-02 -0.25312456E-02  0.16853235E-02
  0.17963934E-02  0.37072610E-04  0.35050066E-03
  0.25475831E-02  0.33803303E-03  0.25363151E-02
 -0.77462477E-03  0.33487074E-02 -0.41022809E-02
  0.16897556E-02 -0.23893947E-02 -0.29224634E-02
 -0.46358683E-02  0.48652995E-03 -0.42627593E-02
  0.17581039E-02  0.64911730E-03 -0.64915893E-03
 -0.60194589E-03 -0.11155055E-02 -0.34934878E-02
  0.39702469E-02  0.13711463E-02 -0.50134971E-02
 -0.88547624E-03  0.11388594E-02  0.14472866E-02
  0.62802462E-02  0.67343738E-02  0.96663585E-03
  0.67477324E-03  0.23626932E-02 -0.30943919E-03
  0.13245491E-02  0.54207713E-03 -0.19817054E-02
  0.13931230E-02  0.37449129E-02  0.34281369E-02
  0.42763502E-02  0.35047650E-02 -0.22564761E-02
 -0.53085723E-02 -0.52903479E-02 -0.24468750E-02
 -0.40524896E-02  0.24267930E-02 -0.18289723E-02
  0.20669318E-02 -0.99930308E-03  0.29172100E-02
 -0.20546781E-02 -0.54784241E-03 -0.14888077E-02
 -0.10085183E-02  0.15934119E-02 -0.45666950E-02
  0.22994702E-02  0.14253219E-02  0.24404807E-02
 -0.15573435E-03 -0.70878649E-03  0.18686303E-02
 -0.32811173E-02 -0.17608126E-02  0.13510382E-02
  0.58617844E-02  0.56084359E-02  0.18459953E-02
 -0.11133937E-02  0.32558942E-03  0.12255212E-02
 -0.27730793E-02  0.47000786E-02 -0.13938165E-02
  0.23521559E-03  0.18586981E-02 -0.26739151E-02
  0.43426117E-02  0.35717769E-02  0.15570650E-02
 -0.37450345E-02  0.19653696E-02  0.24327642E-02
 -0.11510094E-02 -0.13135288E-02 -0.73355166E-03
  0.17211122E-02  0.37470411E-02 -0.21978392E-02
 -0.26011501E-02  0.80283074E-03 -0.30304338E-02
 -0.19304581E-02  0.23478139E-02  0.10685461E-02
 -0.50462370E-03 -0.25304164E-02 -0.23973043E-02
 -0.26111007E-02 -0.13072878E-02 -0.86176292E-03
  0.58017280E-02  0.13932698E-02 -0.10014330E-02
  0.26217159E-02 -0.82906310E-03 -0.37053705E-03
  0.39713393E-02 -0.62539652E-04 -0.49755147E-02
 -0.11889661E-02  0.22809597E-02  0.10437322E-02
 -0.23017631E-02 -0.28403719E-03  0.39532059E-02
  0.51301783E-03 -0.15425157E-02  0.48009827E-03
 -0.51607439E-02  0.13198278E-02 -0.15422487E-02
  0.24280225E-02  0.60223462E-04 -0.10413810E-02
 -0.25171988E-02 -0.56583921E-02  0.10359625E-02
 -0.44677871E-02 -0.35385219E-02 -0.39233159E-02
  0.00000000E+00  0.00000000E+00  0.00000000E+00
  0.00000000E+00  0.00000000E+00  0.00000000E+00
  0.00000000E+00  0.00000000E+00  0.00000000E+00
  0.00000000E+00  0.00000000E+00  0.00000000E+00
  0.00000000E+00  0.00000000E+00  0.00000000E+00
  0.00000000E+00  0.00000000E+00  0.00000000E+00
  0.00000000E+00  0.00000000E+00  0.00000000E+00
  0.00000000E+00  0.00000000E+00  0.00000000E+00
  0.00000000E+00  0.00000000E+00  0.00000000E+00
  0.00000000E+00  0.00000000E+00  0.00000000E+00
  0.00000000E+00  0.00000000E+00  0.00000000E+00
  0.00000000E+00  0.00000000E+00  0.00000000E+00
  0.00000000E+00  0.00000000E+00  0.00000000E+00
  0.00000000E+00  0.00000000E+00  0.00000000E+00
  0.00000000E+00  0.00000000E+00  0.00000000E+00
  0.00000000E+00  0.00000000E+00  0.00000000E+00
  0.00000000E+00  0.00000000E+00  0.00000000E+00
  0.00000000E+00  0.00000000E+00  0.00000000E+00
  0.00000000E+00  0.00000000E+00  0.00000000E+00
  0.00000000E+00  0.00000000E+00  0.00000000E+00
  0.00000000E+00  0.00000000E+00  0.00000000E+00
  0.00000000E+00  0.00000000E+00  0.00000000E+00
  0.00000000E+00  0.00000000E+00  0.00000000E+00
  0.00000000E+00  0.00000000E+00  0.00000000E+00
  0.00000000E+00  0.00000000E+00  0.00000000E+00
  0.00000000E+00  0.00000000E+00  0.00000000E+00
  0.00000000E+00  0.00000000E+00  0.00000000E+00
  0.00000000E+00  0.00000000E+00  0.00000000E+00
  0.00000000E+00  0.00000000E+00  0.00000000E+00
  0.00000000E+00  0.00000000E+00  0.00000000E+00
  0.00000000E+00  0.00000000E+00  0.00000000E+00
  0.00000000E+00  0.00000000E+00  0.00000000E+00
  0.00000000E+00  0.00000000E+00  0.00000000E+00
  0.00000000E+00  0.00000000E+00  0.00000000E+00
  0.00000000E+00  0.00000000E+00  0.00000000E+00
  0.00000000E+00  0.00000000E+00  0.00000000E+00
  0.00000000E+00  0.00000000E+00  0.00000000E+00
  0.00000000E+00  0.00000000E+00  0.00000000E+00
  0.00000000E+00  0.00000000E+00  0.00000000E+00
  0.00000000E+00  0.00000000E+00  0.00000000E+00
  0.00000000E+00  0.00000000E+00  0.00000000E+00
  0.00000000E+00  0.00000000E+00  0.00000000E+00
  0.00000000E+00  0.00000000E+00  0.00000000E+00
  0.00000000E+00  0.00000000E+00  0.00000000E+00
  0.00000000E+00  0.00000000E+00  0.00000000E+00
  0.00000000E+00  0.00000000E+00  0.00000000E+00
  0.00000000E+00  0.00000000E+00  0.00000000E+00
  0.00000000E+00  0.00000000E+00  0.00000000E+00
  0.00000000E+00  0.00000000E+00  0.00000000E+00
  0.00000000E+00  0.00000000E+00  0.00000000E+00
  0.00000000E+00  0.00000000E+00  0.00000000E+00
  0.00000000E+00  0.00000000E+00  0.00000000E+00
  0.00000000E+00  0.00000000E+00  0.00000000E+00
  0.00000000E+00  0.00000000E+00  0.00000000E+00
  0.00000000E+00  0.00000000E+00  0.00000000E+00
  0.00000000E+00  0.00000000E+00  0.00000000E+00
  0.00000000E+00  0.00000000E+00  0.00000000E+00
  0.00000000E+00  0.00000000E+00  0.00000000E+00
  0.00000000E+00  0.00000000E+00  0.00000000E+00
  0.00000000E+00  0.00000000E+00  0.00000000E+00
  0.00000000E+00  0.00000000E+00  0.00000000E+00
  0.00000000E+00  0.00000000E+00  0.00000000E+00
  0.00000000E+00  0.00000000E+00  0.00000000E+00
  0.00000000E+00  0.00000000E+00  0.00000000E+00
  0.00000000E+00  0.00000000E+00  0.00000000E+00
  0.00000000E+00  0.00000000E+00  0.00000000E+00
  0.00000000E+00  0.00000000E+00  0.00000000E+00
  0.00000000E+00  0.00000000E+00  0.00000000E+00
  0.00000000E+00  0.00000000E+00  0.00000000E+00
  0.00000000E+00  0.00000000E+00  0.00000000E+00
  0.00000000E+00  0.00000000E+00  0.00000000E+00
  0.00000000E+00  0.00000000E+00  0.00000000E+00
  0.00000000E+00  0.00000000E+00  0.00000000E+00
  0.00000000E+00  0.00000000E+00  0.00000000E+00
  0.00000000E+00  0.00000000E+00  0.00000000E+00
  0.00000000E+00  0.00000000E+00  0.00000000E+00
  0.00000000E+00  0.00000000E+00  0.00000000E+00
  0.00000000E+00  0.00000000E+00  0.00000000E+00
  0.00000000E+00  0.00000000E+00  0.00000000E+00
  0.00000000E+00  0.00000000E+00  0.00000000E+00
  0.00000000E+00  0.00000000E+00  0.00000000E+00
  0.00000000E+00  0.00000000E+00  0.00000000E+00
  0.00000000E+00  0.00000000E+00  0.00000000E+00
  0.00000000E+00  0.00000000E+00  0.00000000E+00
  0.00000000E+00  0.00000000E+00  0.00000000E+00
  0.00000000E+00  0.00000000E+00  0.00000000E+00
  0.00000000E+00  0.00000000E+00  0.00000000E+00
  0.00000000E+00  0.00000000E+00  0.00000000E+00
  0.00000000E+00  0.00000000E+00  0.00000000E+00
  0.00000000E+00  0.00000000E+00  0.00000000E+00
  0.00000000E+00  0.00000000E+00  0.00000000E+00
  0.00000000E+00  0.00000000E+00  0.00000000E+00
  0.00000000E+00  0.00000000E+00  0.00000000E+00
  0.00000000E+00  0.00000000E+00  0.00000000E+00
  0.00000000E+00  0.00000000E+00  0.00000000E+00
  0.00000000E+00  0.00000000E+00  0.00000000E+00
  0.00000000E+00  0.00000000E+00  0.00000000E+00
  0.00000000E+00  0.00000000E+00  0.00000000E+00
  0.00000000E+00  0.00000000E+00  0.00000000E+00
  0.00000000E+00  0.00000000E+00  0.00000000E+00
  0.00000000E+00  0.00000000E+00  0.00000000E+00
  0.00000000E+00  0.00000000E+00  0.00000000E+00
  0.00000000E+00  0.00000000E+00  0.00000000E+00
  0.00000000E+00  0.00000000E+00  0.00000000E+00
  0.00000000E+00  0.00000000E+00  0.00000000E+00
