Built with Packmol                      
   1.00000000000000     
    11.8284812099999996    0.0000000000000000    0.0000000000000000
     0.0000000000000000   11.8284812099999996    0.0000000000000000
     0.0000000000000000    0.0000000000000000   11.8284812099999996
   Ta   O 
    30    75
Direct
  0.1770176908004099  0.0243127266942882  0.6436822896134272
  0.4001970075012302  0.8578875436158233  0.0300951740386458
  0.8861036532323577  0.2214190283479236  0.5998004173962405
  0.2796848181790560  0.3506469520947224  0.8337069598880976
  0.9836315206253218  0.4427623493440549  0.7344706516911110
  0.2419474237356239  0.6141636951312278  0.8830726782874887
  0.6804767393504741  0.5522590656862922  0.0545247085172829
  0.6915429759444134  0.8044089726644200  0.9402282729639235
  0.9091888377994343  0.7379002143692682  0.1261084608711175
  0.4467108269287868  0.1561671125003630  0.0615730659997612
  0.4805536236813222  0.9879311017388960  0.7782026748530401
  0.9160422818138622  0.8685590944678629  0.4466342489058606
  0.3738161077072537  0.1487218679960325  0.5566146753102010
  0.2504121512764168  0.0231847468609091  0.1997789304797490
  0.1099248501841655  0.9325242391822950  0.9160107680496453
  0.6123065300621645  0.2889555484624748  0.8534045521806778
  0.7000467764541108  0.7671770079552693  0.5820777093013546
  0.9546960838754653  0.2432594850079563  0.9289014211747643
  0.5277577037871153  0.5089306211272270  0.6877876921155565
  0.6215712588014650  0.3465660276738374  0.4669899382857921
  0.2758956989297489  0.7828688632656968  0.4140930074532893
  0.1629831499279024  0.2592553046606614  0.3476513405032160
  0.9944068936407504  0.7387081692960242  0.6925148429687102
  0.2581001351013389  0.5317199035260762  0.2108902529036783
  0.8696775212127588  0.1788389945998401  0.3024151943817792
  0.8144641168581883  0.9924302134388809  0.1782027241589465
  0.6952989544110670  0.0490239486765505  0.6048339632898676
  0.9908851587711022  0.4852329045965793  0.0810550413008830
  0.2556988152760999  0.6234321553868668  0.6029381222018736
  0.5001121008969369  0.5819883130748844  0.3661982329400413
  0.7293803270127949  0.0683610417607915  0.2739706169130338
  0.6487678705593826  0.9414427279541384  0.8559212788737248
  0.9132174257508835  0.4365414274277029  0.6115032501297728
  0.0290091052869930  0.7699249907199153  0.4092044818808556
  0.4755318472256228  0.2800681976676309  0.5310970000983078
  0.2682784462099588  0.6405312910382939  0.0814379285142198
  0.7995429223844006  0.0771165902981704  0.6927627873480834
  0.3548715345592238  0.4913930241447302  0.8064804480474846
  0.9393243302214287  0.5950142580321401  0.7593547017247951
  0.6336518043626849  0.4170930779011791  0.9103997004532390
  0.1803851546929867  0.4112131468343882  0.3587889212552585
  0.8275853083046634  0.6885526308483055  0.6127660085942580
  0.5986741838399491  0.6241514468440290  0.5587439922592708
  0.6947801010066009  0.9485160796365564  0.0692189304956081
  0.1246549629116845  0.6578563699134852  0.7970973001953566
  0.4391596884667786  0.7720458985786243  0.4677264515071584
  0.3265032335821405  0.0104012431568774  0.7459397394076596
  0.5440000611839165  0.5713956123139724  0.8254222417338333
  0.9300708145348909  0.2865468644510082  0.7618854449671192
  0.1069932184553035  0.8877232209060822  0.6282112906513089
  0.4914340797216470  0.1546252848173722  0.8518667859238919
  0.4677250774211729  0.8333371179516711  0.8647010364394403
  0.5073914291513162  0.0866466306098937  0.6151858307316029
  0.3659927229826431  0.5188144534614445  0.5657590365711925
  0.3230783170648580  0.2069397608982267  0.3889787024377343
  0.6032682262517172  0.1750871306593350  0.0475731930485649
  0.1313765193850021  0.3047827293965433  0.8056615936294765
  0.1927997168504931  0.7678928755851955  0.5390860797200422
  0.2885678664947142  0.0111009961413039  0.5256692774537265
  0.6747503085841132  0.2161270159249105  0.5839674965092148
  0.1397330120556569  0.4498563570242542  0.6838623278096637
  0.5557035133097555  0.3679563459217902  0.7303230811051237
  0.5778295036547277  0.4936574844499669  0.1288305670993080
  0.1377494123934798  0.1456681106287235  0.2396608056679635
  0.3764665523523377  0.5042519914299824  0.3870867778612038
  0.6144897876016306  0.9078574796435092  0.6359953765816532
  0.8446512402445080  0.1132807281862895  0.5080862798617014
  0.0014349451271946  0.8363158913129610  0.8127825337307476
  0.6422782940466845  0.6557005941431283  0.9556661441692659
  0.8906164149644489  0.1236169276622676  0.1483369087347528
  0.5323518396289607  0.8013349991362400  0.1076356331829023
  0.8400877237149861  0.8091415826661941  0.9916063293866898
  0.2398470395883632  0.9257096988698299  0.3260968548462809
  0.6574054768018227  0.4512407406128066  0.5852078389325855
  0.9969068015681423  0.1170943922496527  0.6559916473856833
  0.1822406956001484  0.0546665488967277  0.0522918793043994
  0.7109945127626484  0.7896781102484380  0.4302531578065406
  0.1538958550428964  0.4728287478511657  0.9379263429185686
  0.1737537337552841  0.1952355895364905  0.5631394830388753
  0.1928185264072099  0.6686284420629541  0.3419388400485574
  0.2445244466892660  0.8605617295845172  0.9533627777530751
  0.0239117732426943  0.9872542230164960  0.4417194917033616
  0.0501704280758175  0.3112294753876829  0.0569926646006780
  0.7335028089155033  0.2211388003589396  0.3276801108523418
  0.0379520279018247  0.6418121827716110  0.0351880044243391
  0.8253816425397000  0.8837738725707335  0.5958474679373151
  0.3318700667726048  0.6893210090348185  0.7216289020406953
  0.7742492318599492  0.6683888948722347  0.1598881201361533
  0.1282244747684411  0.0374034786448396  0.7947231711384617
  0.7797904275682961  0.2698780164842220  0.9754778278675039
  0.9498874383328932  0.1004016958449859  0.8695493423690054
  0.0874289305025717  0.6200451159201094  0.5990799334266664
  0.4573940427335228  0.6628582117563039  0.2355890077219568
  0.3063238507439609  0.8342537587840997  0.1607011225742254
  0.3554740584346369  0.2858277148969557  0.0116126463369775
  0.3789462380495173  0.1090816105024075  0.1976376679314307
  0.9409709444615140  0.8472335290191351  0.2363184812112381
  0.8481373621319854  0.4533922165499275  0.1346243795041588
  0.4087418290551980  0.0039435456723077  0.9917000523186958
  0.3381937635350994  0.4572274061720474  0.1147497430134414
  0.9713500376700505  0.2747218227254101  0.3313355078856899
  0.3487022296743497  0.2656761460417953  0.7295236254196790
  0.9734463437463341  0.9185844961247618  0.0399911519686286
  0.0924155333631882  0.4967240288239415  0.1857180573313423
  0.5902089836962777  0.4393969539059001  0.3322922363080961
 
 -0.51331070E-03 -0.31362600E-02 -0.43142960E-02
 -0.61305336E-02  0.19927847E-02 -0.50615454E-02
 -0.14026960E-01  0.24845638E-02  0.60946170E-02
 -0.61008334E-03  0.30144407E-02 -0.12618176E-01
  0.42498627E-02 -0.37382185E-02 -0.17187779E-02
  0.15525325E-02 -0.11307149E-02  0.46715463E-02
 -0.64528287E-03  0.54898878E-02  0.60209411E-02
  0.25777422E-02  0.29497009E-02  0.59527401E-02
  0.23464838E-02 -0.40511846E-02 -0.50628191E-02
 -0.47320374E-03 -0.30072615E-02  0.89745636E-02
 -0.99454670E-02 -0.32849029E-03  0.67869359E-03
 -0.49822230E-03  0.59283688E-02  0.63870083E-02
  0.26951207E-02  0.87860105E-02  0.14407047E-02
  0.28693326E-02  0.31875648E-02 -0.40582175E-03
  0.30352103E-02  0.20347198E-02  0.12789742E-02
  0.51812780E-03 -0.64984915E-02 -0.23964486E-03
 -0.35456439E-02 -0.36652697E-02  0.72856577E-02
 -0.73327850E-02 -0.80304331E-02  0.39906991E-02
  0.32954795E-02  0.43750989E-02 -0.39367788E-02
  0.31310493E-02 -0.10379606E-01 -0.10858591E-01
 -0.12333337E-02 -0.16676063E-02 -0.26361070E-02
 -0.17258777E-02 -0.21130056E-02 -0.25121721E-02
 -0.70017809E-02  0.40417404E-03  0.18071136E-02
  0.62787093E-03  0.30004725E-02  0.35218982E-03
  0.19336310E-03  0.50003795E-02  0.29677986E-02
  0.29987670E-02 -0.11420676E-02 -0.22123040E-02
 -0.41475282E-02 -0.90300808E-03 -0.13500176E-02
 -0.18023293E-02  0.19254050E-02 -0.22528235E-02
  0.26392319E-02 -0.27333296E-02  0.95237815E-02
  0.37769607E-02  0.53298502E-03 -0.44790420E-02
  0.14239289E-01  0.17749763E-01  0.18457722E-02
 -0.24143950E-01 -0.81085746E-02 -0.44687772E-02
 -0.12905729E-02 -0.11029181E-01 -0.11140492E-01
  0.25527268E-01 -0.13757115E-01  0.14858247E-01
  0.32317254E-03  0.51205468E-02 -0.11958813E-02
 -0.15036229E-02  0.10966175E-01 -0.35715863E-01
  0.45664582E-02  0.14417875E-02  0.42506176E-02
  0.29323616E-01 -0.14106348E-01  0.20656253E-02
 -0.58797293E-02  0.13036784E-01  0.37822759E-02
  0.11877440E-01  0.17724563E-01 -0.29029405E-01
  0.30305423E-01  0.94469054E-02  0.45465262E-02
 -0.89873366E-02  0.89889585E-02  0.18501639E-02
  0.41741435E-02  0.95583663E-02  0.13338066E-01
  0.38660576E-02  0.56977160E-02  0.93040203E-02
  0.31593895E-02  0.69398455E-04  0.16507308E-01
  0.23575415E-01 -0.10847211E-01 -0.47952204E-02
  0.11576016E-01  0.51054913E-03 -0.57272010E-02
  0.43121623E-02 -0.26434368E-01  0.57553781E-02
  0.92980550E-02 -0.82955023E-02  0.27520315E-01
 -0.30883524E-01 -0.15780318E-01  0.62945563E-02
  0.57454525E-02  0.10003978E-01 -0.11781962E-01
  0.44789375E-02  0.19514384E-01  0.27662403E-01
  0.34537074E-01 -0.27962318E-02 -0.22658793E-01
  0.16955008E-01 -0.21071499E-01  0.33926949E-01
 -0.16217987E-01  0.15131838E-01 -0.96037377E-02
  0.10811539E-01 -0.18779367E-01 -0.13284352E-01
  0.11464599E-01 -0.12109996E-01 -0.16749653E-01
 -0.94128338E-02 -0.60771870E-02  0.22524460E-02
 -0.27701988E-01  0.11518925E-01 -0.70615858E-02
  0.15521912E-01  0.39944157E-02  0.12881298E-01
  0.17625089E-01  0.22526968E-01 -0.10428531E-02
 -0.10552062E-01 -0.37005205E-02 -0.22639152E-01
  0.76592122E-02 -0.97714849E-02  0.19315253E-02
 -0.92192327E-02  0.13632709E-01 -0.84387232E-02
  0.39834021E-01  0.14984177E-01 -0.13805214E-02
 -0.18503309E-01 -0.78932706E-02  0.45788533E-01
  0.23007036E-02 -0.21441144E-01  0.11100352E-01
 -0.12983074E-01  0.14050233E-01 -0.30417375E-02
  0.74534379E-02  0.22160426E-01 -0.14269436E-01
  0.15190832E-01 -0.25960834E-01 -0.16016387E-01
 -0.70656217E-02  0.95857516E-02 -0.58267509E-02
  0.10874856E-01  0.11055343E-01  0.87104842E-02
  0.30559301E-01  0.58589738E-04 -0.17078970E-01
 -0.10892269E-01  0.46568947E-02 -0.11867473E-01
  0.27908226E-02 -0.11215848E-01 -0.19942849E-01
  0.69370728E-02  0.11335071E-01 -0.91273057E-02
 -0.16012503E-01  0.14504225E-01  0.11799692E-01
  0.12347426E-01 -0.10436014E-01 -0.84728240E-02
  0.40321420E-02 -0.19820525E-01  0.39136691E-02
  0.32434385E-01 -0.41273448E-03  0.18807654E-01
  0.65189353E-02  0.72479814E-02 -0.73333910E-02
 -0.13427218E-01  0.54111964E-02  0.65902123E-02
  0.10077008E-01  0.71249191E-02 -0.35515198E-03
  0.69238841E-02 -0.16818842E-01 -0.24598840E-01
 -0.43796517E-02 -0.39610305E-02 -0.11603554E-01
 -0.20457315E-02  0.92268171E-02  0.28998865E-02
 -0.17196688E-02  0.18624130E-02 -0.49162217E-01
 -0.17540950E-01 -0.48817527E-02  0.10872078E-02
 -0.16800045E-02  0.99200700E-02 -0.20779607E-01
  0.97223332E-04 -0.26132467E-01  0.52072203E-01
  0.31531819E-01 -0.21114033E-01 -0.13800614E-01
 -0.11308078E-01  0.18049402E-01  0.25005925E-01
  0.18907863E-01 -0.20533028E-01  0.45320229E-02
 -0.19385026E-01  0.75959411E-02 -0.28586141E-01
 -0.14445930E-01  0.16952150E-01  0.42213410E-02
  0.21256458E-01  0.22660943E-01 -0.13577149E-01
 -0.48626537E-02 -0.28616200E-01  0.45862971E-01
  0.13064949E-01  0.97629741E-02 -0.11563725E-01
 -0.10312772E-01 -0.24747671E-01 -0.18104132E-01
 -0.94474369E-02 -0.55115427E-02 -0.80031959E-02
  0.17013315E-01  0.17573012E-01 -0.41366213E-01
 -0.63221647E-02  0.90788159E-02 -0.14944632E-02
  0.14141319E-02  0.16449216E-01  0.69579283E-02
 -0.32528229E-02 -0.16834681E-01  0.15443840E-01
  0.42515864E-03  0.70961640E-02  0.19467358E-01
 
           1
   2.00000000000000     
  0.10000000E+01  0.00000000E+00  0.00000000E+00  0.00000000E+00
  0.17693090E+00  0.23782437E-01  0.64295281E+00
  0.39916044E+00  0.85822449E+00  0.29239351E-01
  0.88373193E+00  0.22183913E+00  0.60083092E+00
  0.27958166E+00  0.35115664E+00  0.83157344E+00
  0.98435010E+00  0.44213028E+00  0.73418003E+00
  0.24220993E+00  0.61397251E+00  0.88386256E+00
  0.68036763E+00  0.55318731E+00  0.55542750E-01
  0.69197883E+00  0.80490772E+00  0.94123478E+00
  0.90958559E+00  0.73721523E+00  0.12525242E+00
  0.44663082E+00  0.15565863E+00  0.63090516E-01
  0.47887201E+00  0.98787556E+00  0.77831743E+00
  0.91595804E+00  0.86956148E+00  0.44771419E+00
  0.37427181E+00  0.15020744E+00  0.55685827E+00
  0.25089731E+00  0.23723711E-01  0.19971031E+00
  0.11043805E+00  0.93286828E+00  0.91622702E+00
  0.61239414E+00  0.28785676E+00  0.85336403E+00
  0.69944727E+00  0.76655727E+00  0.58330959E+00
  0.95345623E+00  0.24190167E+00  0.92957618E+00
  0.52831491E+00  0.50967038E+00  0.68712205E+00
  0.62210067E+00  0.34481101E+00  0.46515393E+00
  0.27568716E+00  0.78258690E+00  0.41364729E+00
  0.16269133E+00  0.25889803E+00  0.34722657E+00
  0.99322301E+00  0.73877651E+00  0.69282040E+00
  0.25820630E+00  0.53222723E+00  0.21094980E+00
  0.86971022E+00  0.17968448E+00  0.30291700E+00
  0.81497116E+00  0.99223711E+00  0.17782866E+00
  0.69459768E+00  0.48871265E-01  0.60460570E+00
  0.99058041E+00  0.48555846E+00  0.80674126E-01
  0.25614507E+00  0.62296999E+00  0.60454844E+00
  0.50075072E+00  0.58207843E+00  0.36544090E+00
  0.73178795E+00  0.71362232E-01  0.27428271E+00
  0.64468553E+00  0.94007170E+00  0.85516568E+00
  0.91299921E+00  0.43467658E+00  0.60961958E+00
  0.33325343E-01  0.76759889E+00  0.41171677E+00
  0.47558649E+00  0.28093400E+00  0.53089480E+00
  0.26802421E+00  0.64238549E+00  0.75398968E-01
  0.80031503E+00  0.77360373E-01  0.69348150E+00
  0.35982967E+00  0.48900787E+00  0.80682971E+00
  0.93833017E+00  0.59721856E+00  0.75999422E+00
  0.63566008E+00  0.42009001E+00  0.90549131E+00
  0.18550930E+00  0.41281046E+00  0.35955766E+00
  0.82606570E+00  0.69007251E+00  0.61307884E+00
  0.59937996E+00  0.62576761E+00  0.56099924E+00
  0.69543379E+00  0.94947947E+00  0.70792086E-01
  0.12518916E+00  0.65786810E+00  0.79988841E+00
  0.44314590E+00  0.77021182E+00  0.46691566E+00
  0.32846055E+00  0.10487569E-01  0.74497136E+00
  0.54472918E+00  0.56692600E+00  0.82639538E+00
  0.93164296E+00  0.28514423E+00  0.76653867E+00
  0.10177133E+00  0.88505503E+00  0.62927560E+00
  0.49240554E+00  0.15631679E+00  0.84987465E+00
  0.46848239E+00  0.83663668E+00  0.86937829E+00
  0.51323108E+00  0.86173834E-01  0.61135460E+00
  0.36885953E+00  0.51525161E+00  0.57149552E+00
  0.32033612E+00  0.20949830E+00  0.38735487E+00
  0.60509628E+00  0.17191185E+00  0.45327029E-01
  0.13331499E+00  0.30273513E+00  0.80282951E+00
  0.19120816E+00  0.76686532E+00  0.53946693E+00
  0.28388392E+00  0.13048655E-01  0.52447528E+00
  0.67737481E+00  0.21680241E+00  0.58614551E+00
  0.14271312E+00  0.45366529E+00  0.68368600E+00
  0.55391933E+00  0.36733065E+00  0.72649518E+00
  0.57912455E+00  0.49200529E+00  0.12915716E+00
  0.13619059E+00  0.14797318E+00  0.23823396E+00
  0.38320182E+00  0.50678557E+00  0.38685335E+00
  0.61136119E+00  0.90652286E+00  0.64373746E+00
  0.84504025E+00  0.10965539E+00  0.50996317E+00
  0.99923972E+00  0.83869155E+00  0.81226823E+00
  0.64353855E+00  0.65944755E+00  0.95325342E+00
  0.89318493E+00  0.11922738E+00  0.14562880E+00
  0.53115716E+00  0.80295579E+00  0.10665043E+00
  0.84192648E+00  0.81101086E+00  0.99307913E+00
  0.24501411E+00  0.92571961E+00  0.32320908E+00
  0.65556377E+00  0.45202814E+00  0.58320125E+00
  0.99737868E+00  0.11519798E+00  0.65261964E+00
  0.18341364E+00  0.56583121E-01  0.50748603E-01
  0.70828706E+00  0.79213053E+00  0.43224829E+00
  0.15598360E+00  0.47106419E+00  0.93649373E+00
  0.17443550E+00  0.19188427E+00  0.56380122E+00
  0.19830264E+00  0.66855866E+00  0.34511890E+00
  0.24562669E+00  0.86178724E+00  0.95212282E+00
  0.21641453E-01  0.98816917E+00  0.44283379E+00
  0.51874283E-01  0.31243418E+00  0.56932614E-01
  0.73467352E+00  0.21829501E+00  0.32352086E+00
  0.37211501E-01  0.64114244E+00  0.33226036E-01
  0.82503574E+00  0.88533397E+00  0.59633779E+00
  0.33157930E+00  0.68963591E+00  0.71331639E+00
  0.77128335E+00  0.66756347E+00  0.16007195E+00
  0.12794041E+00  0.39080798E-01  0.79120968E+00
  0.77980687E+00  0.26545945E+00  0.98428237E+00
  0.95521895E+00  0.96831663E-01  0.86721589E+00
  0.85516922E-01  0.62309697E+00  0.60330802E+00
  0.46059105E+00  0.65938642E+00  0.23635530E+00
  0.30304616E+00  0.83553811E+00  0.15586768E+00
  0.35303149E+00  0.28869404E+00  0.12326405E-01
  0.38254035E+00  0.11291320E+00  0.19534200E+00
  0.94014875E+00  0.84239500E+00  0.24407315E+00
  0.85034643E+00  0.45504297E+00  0.13266915E+00
  0.40699811E+00  0.99975912E+00  0.98863894E+00
  0.33659636E+00  0.45629550E+00  0.11339654E+00
  0.97422671E+00  0.27769313E+00  0.32434117E+00
  0.34763326E+00  0.26721122E+00  0.72927094E+00
  0.97368545E+00  0.92136579E+00  0.41167622E-01
  0.91865535E-01  0.49387756E+00  0.18832935E+00
  0.59028087E+00  0.44059680E+00  0.33558384E+00
 -0.52536918E-04 -0.54694275E-03 -0.72380413E-03
 -0.10441654E-02  0.38648596E-03 -0.87891237E-03
 -0.24121785E-02  0.42399666E-03  0.97006325E-03
 -0.81203383E-04  0.52369489E-03 -0.21536663E-02
  0.65223809E-03 -0.64374325E-03 -0.32002179E-03
  0.26685698E-03 -0.16652164E-03  0.76807347E-03
 -0.17242774E-03  0.96998024E-03  0.99987599E-03
  0.46381079E-03  0.42455739E-03  0.98343748E-03
  0.36943094E-03 -0.70233499E-03 -0.82191113E-03
 -0.88423959E-04 -0.52942892E-03  0.15613530E-02
 -0.16856689E-02 -0.51527201E-04  0.88439134E-04
 -0.11926863E-03  0.99537505E-03  0.11006372E-02
  0.48832778E-03  0.14435578E-02  0.26220968E-03
  0.51953879E-03  0.55478551E-03 -0.57603602E-04
  0.54298481E-03  0.32567381E-03  0.18585426E-03
  0.78898217E-04 -0.10376602E-02 -0.57020296E-04
 -0.56983287E-03 -0.60334398E-03  0.12558144E-02
 -0.12176839E-02 -0.13414686E-02  0.67968562E-03
  0.59025831E-03  0.67778989E-03 -0.64462603E-03
  0.54630846E-03 -0.17472643E-02 -0.18579929E-02
 -0.22871478E-03 -0.30186589E-03 -0.40440792E-03
 -0.31493259E-03 -0.34664395E-03 -0.47125384E-03
 -0.11891443E-02  0.10472687E-03  0.32077796E-03
  0.99420645E-04  0.47970866E-03  0.51676143E-04
  0.41290767E-04  0.89086006E-03  0.50232283E-03
  0.51977105E-03 -0.13684077E-03 -0.31977590E-03
 -0.66875102E-03 -0.14556902E-03 -0.17416197E-03
 -0.32547710E-03  0.35464691E-03 -0.34391953E-03
  0.45968496E-03 -0.45615412E-03  0.15923632E-02
  0.63992043E-03  0.57122131E-04 -0.74571929E-03
  0.25628169E-02  0.35349974E-02  0.21864691E-03
 -0.41211782E-02 -0.11991048E-02 -0.70713750E-03
  0.13346279E-03 -0.15948089E-02 -0.11917075E-02
  0.46529614E-02 -0.23827390E-02  0.22859396E-02
 -0.19992120E-03  0.69328775E-03  0.53195885E-04
 -0.13633183E-03  0.18333516E-02 -0.58059034E-02
  0.37226408E-03  0.24730228E-04  0.18488726E-04
  0.50899670E-02 -0.24994603E-02  0.26560564E-03
 -0.88944690E-03  0.21428534E-02  0.46292405E-03
  0.18884034E-02  0.25037191E-02 -0.53845402E-02
  0.50766659E-02  0.16593628E-02  0.96468962E-03
 -0.18160809E-02  0.15918345E-02  0.16672784E-03
  0.79433287E-03  0.14114888E-02  0.21351263E-02
  0.40341391E-03  0.99356777E-03  0.14033185E-02
  0.43282669E-03 -0.15712558E-03  0.26784630E-02
  0.43177728E-02 -0.16437030E-02 -0.64263762E-03
  0.18133435E-02  0.12435162E-03 -0.85099030E-03
  0.69531124E-03 -0.44560588E-02  0.13285748E-02
  0.17927966E-02 -0.14404469E-02  0.45382082E-02
 -0.50591244E-02 -0.27136285E-02  0.95139119E-03
  0.82020179E-03  0.18457462E-02 -0.19375695E-02
  0.81402245E-03  0.31172753E-02  0.47736896E-02
  0.57245701E-02 -0.26461541E-03 -0.39985950E-02
  0.27037117E-02 -0.35438896E-02  0.54712213E-02
 -0.25488455E-02  0.25795500E-02 -0.17437526E-02
  0.21286672E-02 -0.32492637E-02 -0.22819591E-02
  0.20177867E-02 -0.19189639E-02 -0.30298871E-02
 -0.18619134E-02 -0.95112980E-03  0.31672865E-03
 -0.49180480E-02  0.19621608E-02 -0.11882956E-02
  0.24798126E-02  0.61767052E-03  0.22730868E-02
  0.29688711E-02  0.37126795E-02 -0.16717287E-03
 -0.18047515E-02 -0.14954795E-03 -0.39318620E-02
  0.16668949E-02 -0.15519036E-02  0.13810910E-03
 -0.16391857E-02  0.23298724E-02 -0.14193888E-02
  0.68713655E-02  0.25846249E-02  0.59799681E-04
 -0.30386656E-02 -0.13316727E-02  0.76254905E-02
  0.57554873E-03 -0.33520289E-02  0.24866225E-02
 -0.22616013E-02  0.23094795E-02 -0.63124170E-03
  0.13814164E-02  0.34647245E-02 -0.21495112E-02
  0.24276592E-02 -0.45869957E-02 -0.26444740E-02
 -0.12107422E-02  0.15248097E-02 -0.68151044E-03
  0.19493823E-02  0.21697159E-02  0.15601429E-02
  0.51851154E-02  0.55032889E-05 -0.29981125E-02
 -0.18715694E-02  0.11289485E-02 -0.16761954E-02
  0.59863190E-03 -0.21881961E-02 -0.31049766E-02
  0.11400803E-02  0.21608309E-02 -0.15352051E-02
 -0.28343553E-02  0.23853993E-02  0.20236568E-02
  0.18888438E-02 -0.20562042E-02 -0.12930891E-02
  0.52825577E-03 -0.32109718E-02  0.69455639E-03
  0.51866544E-02 -0.40581579E-05  0.32513594E-02
  0.12952496E-02  0.13756852E-02 -0.10231928E-02
 -0.19448795E-02  0.99544154E-03  0.11728532E-02
  0.19961345E-02  0.11151294E-02  0.12521218E-03
  0.16254113E-02 -0.36299772E-02 -0.45007819E-02
 -0.30009545E-03 -0.76290873E-03 -0.21512649E-02
 -0.47512367E-03  0.13439802E-02  0.58407282E-03
 -0.18205668E-03  0.36674931E-03 -0.84219052E-02
 -0.28975744E-02 -0.75454286E-03  0.23989738E-03
 -0.36259367E-03  0.17838617E-02 -0.37845132E-02
 -0.30908725E-03 -0.44120893E-02  0.91305524E-02
  0.52733604E-02 -0.37283412E-02 -0.26339167E-02
 -0.17644388E-02  0.28852513E-02  0.41697513E-02
  0.31561225E-02 -0.32082647E-02  0.44047455E-03
 -0.33772121E-02  0.97187240E-03 -0.46823584E-02
 -0.25682688E-02  0.30971301E-02  0.90568414E-03
  0.33983306E-02  0.37826241E-02 -0.24063645E-02
 -0.52815515E-03 -0.49528013E-02  0.76306506E-02
  0.23214549E-02  0.15035414E-02 -0.18694681E-02
 -0.18740624E-02 -0.46675619E-02 -0.30486501E-02
 -0.16404393E-02 -0.73301958E-03 -0.14652659E-02
  0.22267258E-02  0.24560473E-02 -0.72886647E-02
 -0.10918494E-02  0.16727888E-02 -0.60551232E-04
 -0.93092601E-04  0.27797031E-02  0.12471046E-02
 -0.75821432E-03 -0.28531163E-02  0.23052762E-02
  0.14142232E-04  0.12392623E-02  0.29928645E-02
  0.00000000E+00  0.00000000E+00  0.00000000E+00
  0.00000000E+00  0.00000000E+00  0.00000000E+00
  0.00000000E+00  0.00000000E+00  0.00000000E+00
  0.00000000E+00  0.00000000E+00  0.00000000E+00
  0.00000000E+00  0.00000000E+00  0.00000000E+00
  0.00000000E+00  0.00000000E+00  0.00000000E+00
  0.00000000E+00  0.00000000E+00  0.00000000E+00
  0.00000000E+00  0.00000000E+00  0.00000000E+00
  0.00000000E+00  0.00000000E+00  0.00000000E+00
  0.00000000E+00  0.00000000E+00  0.00000000E+00
  0.00000000E+00  0.00000000E+00  0.00000000E+00
  0.00000000E+00  0.00000000E+00  0.00000000E+00
  0.00000000E+00  0.00000000E+00  0.00000000E+00
  0.00000000E+00  0.00000000E+00  0.00000000E+00
  0.00000000E+00  0.00000000E+00  0.00000000E+00
  0.00000000E+00  0.00000000E+00  0.00000000E+00
  0.00000000E+00  0.00000000E+00  0.00000000E+00
  0.00000000E+00  0.00000000E+00  0.00000000E+00
  0.00000000E+00  0.00000000E+00  0.00000000E+00
  0.00000000E+00  0.00000000E+00  0.00000000E+00
  0.00000000E+00  0.00000000E+00  0.00000000E+00
  0.00000000E+00  0.00000000E+00  0.00000000E+00
  0.00000000E+00  0.00000000E+00  0.00000000E+00
  0.00000000E+00  0.00000000E+00  0.00000000E+00
  0.00000000E+00  0.00000000E+00  0.00000000E+00
  0.00000000E+00  0.00000000E+00  0.00000000E+00
  0.00000000E+00  0.00000000E+00  0.00000000E+00
  0.00000000E+00  0.00000000E+00  0.00000000E+00
  0.00000000E+00  0.00000000E+00  0.00000000E+00
  0.00000000E+00  0.00000000E+00  0.00000000E+00
  0.00000000E+00  0.00000000E+00  0.00000000E+00
  0.00000000E+00  0.00000000E+00  0.00000000E+00
  0.00000000E+00  0.00000000E+00  0.00000000E+00
  0.00000000E+00  0.00000000E+00  0.00000000E+00
  0.00000000E+00  0.00000000E+00  0.00000000E+00
  0.00000000E+00  0.00000000E+00  0.00000000E+00
  0.00000000E+00  0.00000000E+00  0.00000000E+00
  0.00000000E+00  0.00000000E+00  0.00000000E+00
  0.00000000E+00  0.00000000E+00  0.00000000E+00
  0.00000000E+00  0.00000000E+00  0.00000000E+00
  0.00000000E+00  0.00000000E+00  0.00000000E+00
  0.00000000E+00  0.00000000E+00  0.00000000E+00
  0.00000000E+00  0.00000000E+00  0.00000000E+00
  0.00000000E+00  0.00000000E+00  0.00000000E+00
  0.00000000E+00  0.00000000E+00  0.00000000E+00
  0.00000000E+00  0.00000000E+00  0.00000000E+00
  0.00000000E+00  0.00000000E+00  0.00000000E+00
  0.00000000E+00  0.00000000E+00  0.00000000E+00
  0.00000000E+00  0.00000000E+00  0.00000000E+00
  0.00000000E+00  0.00000000E+00  0.00000000E+00
  0.00000000E+00  0.00000000E+00  0.00000000E+00
  0.00000000E+00  0.00000000E+00  0.00000000E+00
  0.00000000E+00  0.00000000E+00  0.00000000E+00
  0.00000000E+00  0.00000000E+00  0.00000000E+00
  0.00000000E+00  0.00000000E+00  0.00000000E+00
  0.00000000E+00  0.00000000E+00  0.00000000E+00
  0.00000000E+00  0.00000000E+00  0.00000000E+00
  0.00000000E+00  0.00000000E+00  0.00000000E+00
  0.00000000E+00  0.00000000E+00  0.00000000E+00
  0.00000000E+00  0.00000000E+00  0.00000000E+00
  0.00000000E+00  0.00000000E+00  0.00000000E+00
  0.00000000E+00  0.00000000E+00  0.00000000E+00
  0.00000000E+00  0.00000000E+00  0.00000000E+00
  0.00000000E+00  0.00000000E+00  0.00000000E+00
  0.00000000E+00  0.00000000E+00  0.00000000E+00
  0.00000000E+00  0.00000000E+00  0.00000000E+00
  0.00000000E+00  0.00000000E+00  0.00000000E+00
  0.00000000E+00  0.00000000E+00  0.00000000E+00
  0.00000000E+00  0.00000000E+00  0.00000000E+00
  0.00000000E+00  0.00000000E+00  0.00000000E+00
  0.00000000E+00  0.00000000E+00  0.00000000E+00
  0.00000000E+00  0.00000000E+00  0.00000000E+00
  0.00000000E+00  0.00000000E+00  0.00000000E+00
  0.00000000E+00  0.00000000E+00  0.00000000E+00
  0.00000000E+00  0.00000000E+00  0.00000000E+00
  0.00000000E+00  0.00000000E+00  0.00000000E+00
  0.00000000E+00  0.00000000E+00  0.00000000E+00
  0.00000000E+00  0.00000000E+00  0.00000000E+00
  0.00000000E+00  0.00000000E+00  0.00000000E+00
  0.00000000E+00  0.00000000E+00  0.00000000E+00
  0.00000000E+00  0.00000000E+00  0.00000000E+00
  0.00000000E+00  0.00000000E+00  0.00000000E+00
  0.00000000E+00  0.00000000E+00  0.00000000E+00
  0.00000000E+00  0.00000000E+00  0.00000000E+00
  0.00000000E+00  0.00000000E+00  0.00000000E+00
  0.00000000E+00  0.00000000E+00  0.00000000E+00
  0.00000000E+00  0.00000000E+00  0.00000000E+00
  0.00000000E+00  0.00000000E+00  0.00000000E+00
  0.00000000E+00  0.00000000E+00  0.00000000E+00
  0.00000000E+00  0.00000000E+00  0.00000000E+00
  0.00000000E+00  0.00000000E+00  0.00000000E+00
  0.00000000E+00  0.00000000E+00  0.00000000E+00
  0.00000000E+00  0.00000000E+00  0.00000000E+00
  0.00000000E+00  0.00000000E+00  0.00000000E+00
  0.00000000E+00  0.00000000E+00  0.00000000E+00
  0.00000000E+00  0.00000000E+00  0.00000000E+00
  0.00000000E+00  0.00000000E+00  0.00000000E+00
  0.00000000E+00  0.00000000E+00  0.00000000E+00
  0.00000000E+00  0.00000000E+00  0.00000000E+00
  0.00000000E+00  0.00000000E+00  0.00000000E+00
  0.00000000E+00  0.00000000E+00  0.00000000E+00
  0.00000000E+00  0.00000000E+00  0.00000000E+00
  0.00000000E+00  0.00000000E+00  0.00000000E+00
  0.00000000E+00  0.00000000E+00  0.00000000E+00
  0.00000000E+00  0.00000000E+00  0.00000000E+00
