Built with Packmol                      
   1.00000000000000     
    11.8284812099999996    0.0000000000000000    0.0000000000000000
     0.0000000000000000   11.8284812099999996    0.0000000000000000
     0.0000000000000000    0.0000000000000000   11.8284812099999996
   Ta   O 
    30    75
Direct
  0.4760262371068435  0.0397827874425672  0.8847775279258494
  0.1635050287163872  0.1711233783698310  0.1521769211650094
  0.2890236649005515  0.2654477844572860  0.7410355110674641
  0.4093589257337126  0.7261596680989169  0.9518278796067846
  0.9137218206325175  0.3608134903854084  0.2912189135796825
  0.2111756710734567  0.9342261997814687  0.5622942526021026
  0.4540783245050616  0.2954546915016560  0.2118598069868058
  0.4866948117520927  0.8509737093835547  0.4558470519611543
  0.0779185463826743  0.6609342212129731  0.9997904273009096
  0.5350556640488037  0.3687272224556051  0.7788367764076783
  0.8329162050841847  0.7508654662798447  0.8275422303006585
  0.8173240365594464  0.5589143901528779  0.0546120184804921
  0.6382094462105353  0.1668556904044619  0.3565068515595245
  0.7737882034588790  0.7265958654665069  0.5263360733667150
  0.1690032190109073  0.9536902089617619  0.9607231891868979
  0.1780964052763862  0.3448909613298524  0.9804030603138333
  0.8465058927888590  0.4864892814364750  0.6798150757968696
  0.9256448083244548  0.0633019726088039  0.8687395867719824
  0.6103253133625975  0.6336393109065412  0.8096008537255546
  0.0006404103268173  0.1886661484717630  0.5856136063212269
  0.1675467887855178  0.9285949673525637  0.2574221334790736
  0.2606051741254886  0.5248817415337905  0.1663150397348011
  0.1171564192500284  0.5159669097612665  0.5491469595804214
  0.0456130518415942  0.6940482212575816  0.3516898234173322
  0.4540855866647370  0.9395888454999231  0.1883212042961759
  0.7594375729747842  0.8818935528311558  0.2034184774937951
  0.4780871276789996  0.0975970066505680  0.6114856177497734
  0.8426622123336833  0.2866829298148338  0.8991258779656091
  0.8529667056661001  0.0448249623971092  0.4447726678303514
  0.2499277288436120  0.7566143423191327  0.7605181063529268
  0.1430723053527279  0.5081083185910349  0.9498868970055445
  0.7646544441226817  0.2766613851904570  0.3608348137428657
  0.7046834693746455  0.0681326045945855  0.4674688211612318
  0.7070406235187745  0.7964090824657093  0.4039894594563421
  0.3454408762619656  0.4412684644779327  0.2407001075984184
  0.9481103338893331  0.6497729684920527  0.0702531726111148
  0.2540361119108888  0.9483260188857603  0.1221384207058994
  0.3604444031436513  0.3987654251018393  0.7862823893086504
  0.0779231441753490  0.0577274999227297  0.2193255032568740
  0.9944625660577128  0.2509106236911611  0.9120574240489827
  0.9636103446870676  0.7523551755037851  0.4587746857485364
  0.1592567077983676  0.3284235420967422  0.8099560415878015
  0.7580382943373708  0.3539371029414937  0.6294575403471511
  0.0553825394337130  0.6732328001850830  0.8516198277804355
  0.1572057262248699  0.1145657127959006  0.5853983364891469
  0.5140933085449420  0.9612798439679905  0.5617017384954274
  0.3084162288093102  0.1910367381896868  0.2482958376289846
  0.5113722709846253  0.8301497105676456  0.9296225450890420
  0.3200353210505997  0.0146770359673127  0.8792448342869327
  0.8856032706282762  0.4153556837611076  0.8046175241253692
  0.4831271792286845  0.1948485898020189  0.8807196792457408
  0.8899652564890688  0.4150180758834461  0.9992105868164940
  0.0704127071831502  0.7855792609712503  0.2249864924375432
  0.5648797159815966  0.8887901330227705  0.3135389419205711
  0.5498873407565720  0.1861400200550059  0.4994803779690793
  0.0007265458194277  0.0511694019021599  0.0234220547809381
  0.7824336233665963  0.8394507191311098  0.0701644668056540
  0.3572123176480231  0.8546913973735552  0.6907771842304792
  0.5743588528262988  0.0785265981305051  0.7399693999399811
  0.5538904279908234  0.5266123835722910  0.7194599677236724
  0.9838158233717799  0.3335753072748168  0.6282046987433217
  0.7473680081325575  0.5813385288146937  0.5555856614593199
  0.3622557924831417  0.6325487108459245  0.8055613707005206
  0.8973450979339931  0.8649604073963395  0.2560780863720292
  0.1917303134497222  0.6621355318991008  0.4438392710042032
  0.3264476966236868  0.4117289171575545  0.9962257889281215
  0.9219856182598325  0.1824361337154222  0.4390807116355681
  0.2322774441258152  0.1685421179745397  0.0170052216904393
  0.2221338450798864  0.2871706468825644  0.6126340632331018
  0.4348654595288395  0.8061312983828558  0.1463011523047471
  0.4759225406732085  0.0247225916096065  0.0366286695709409
  0.5474420035924461  0.2956489023047938  0.0995893136399236
  0.9301199256644352  0.9621886304122573  0.5356418330334658
  0.2854918067155074  0.8204865669611952  0.9383205313838681
  0.6936819815515394  0.8005440215410826  0.8320982815662619
  0.4882755532228967  0.5675730123444199  0.9435295562823137
  0.7765130387663660  0.1243884199581416  0.8807327554533094
  0.6885579008558336  0.3188494224887977  0.8754055413344723
  0.5253752503598113  0.1419851894889327  0.2448178127373255
  0.1601096755829590  0.9651620646531345  0.4292543522015428
  0.4971595310929479  0.7031017925011955  0.4664332142274997
  0.7087093056462229  0.5558223289329741  0.1354938424177249
  0.0734648152643576  0.0031082157901324  0.8564883581584650
  0.6998958112599721  0.0369066116726590  0.2610822792431557
  0.9695860900367238  0.4860984210652020  0.2149494725759605
  0.4916304724106968  0.2954427867395595  0.3828233873544306
  0.4547795952304025  0.2741138958207184  0.6719421275797244
  0.8297637837622693  0.7629437940539603  0.6704578921869712
  0.3369133212939380  0.0477635089679917  0.6145086547262186
  0.1454916834013952  0.8016404496823570  0.6280794402900240
  0.0870671059308966  0.8379579046663886  0.0130125317196517
  0.9655598589458028  0.5781305087864176  0.6115523887448039
  0.1877194160705313  0.5700415856880099  0.6586071225792798
  0.7514061466602442  0.6172691254517404  0.9318280046146410
  0.0431048090665993  0.4256200484323615  0.4063882525693871
  0.1342925052220405  0.3192707816715558  0.1550848400787159
  0.3250594385236997  0.9266159387388746  0.2907371603444950
  0.7445612569791168  0.5716403693609825  0.7524012865918022
  0.6482897871682701  0.7242387398400126  0.6172695283909037
  0.3216950508265338  0.6676142961627236  0.0816870890834343
  0.9169195580345997  0.1298535044579643  0.7033563922915659
  0.9569810210452198  0.2397026589244635  0.2223477662007805
  0.8661303963795554  0.8972609827099454  0.8815471779312156
  0.3490707950605291  0.9071976757323750  0.4721270126717408
  0.1644698222351888  0.5684064627725880  0.2753890015933679
 
 -0.35582365E-04 -0.43169742E-02 -0.27774857E-02
 -0.16214337E-02  0.22680073E-03  0.93050852E-02
 -0.16553351E-02  0.94753715E-02  0.18097821E-02
 -0.98750264E-02  0.44079220E-02  0.16766517E-02
  0.72738012E-02 -0.21838632E-02 -0.36622041E-02
 -0.61819333E-02  0.63551576E-02 -0.15436903E-02
  0.30385043E-02 -0.29001097E-02 -0.18878761E-02
 -0.79287777E-02  0.11340178E-02 -0.23539398E-02
  0.22380327E-02 -0.37742348E-02 -0.10611867E-02
 -0.68944091E-02 -0.37421089E-02 -0.44265553E-02
  0.46940877E-02  0.52769279E-02 -0.15872873E-03
  0.77545951E-02  0.91650086E-03 -0.76451714E-04
  0.65602251E-02  0.17591757E-02 -0.31218855E-03
  0.18369393E-02 -0.33085812E-02  0.16462954E-02
  0.39499164E-02  0.18223361E-02  0.19434071E-02
 -0.15547888E-02  0.60996574E-02 -0.11934776E-03
  0.98120524E-03 -0.13546055E-02 -0.47258276E-02
  0.77212577E-03 -0.41680865E-03  0.36664605E-02
  0.50762238E-02 -0.22661442E-02 -0.28598269E-02
 -0.62919999E-03  0.15269725E-02  0.61434923E-03
  0.56619537E-03 -0.13248661E-02  0.69423467E-02
 -0.99105610E-03 -0.77955063E-02 -0.22808693E-02
 -0.32582794E-02  0.33640959E-02  0.43074209E-03
 -0.10953092E-02  0.65472446E-02  0.64950176E-02
  0.30852881E-03 -0.28122274E-02 -0.58102602E-02
  0.59844095E-02 -0.13486791E-02  0.79032757E-03
  0.88881521E-02 -0.89278560E-03 -0.74405485E-02
  0.21950024E-02  0.57198267E-02 -0.90335732E-02
  0.83268822E-03  0.48723951E-02  0.34899244E-02
 -0.24741730E-02 -0.99546097E-02 -0.66485663E-02
  0.30006493E-01 -0.13928865E-01  0.69915256E-02
 -0.36873325E-01  0.86559573E-02 -0.48360039E-02
  0.75761707E-02  0.97880126E-03 -0.13070521E-02
 -0.39544162E-02 -0.10776243E-01  0.43970414E-02
 -0.49745335E-03  0.22059721E-02  0.82005499E-02
 -0.22642168E-01 -0.11482537E-01  0.82398367E-02
  0.21871174E-01  0.15883433E-01  0.18206112E-01
 -0.25672892E-01  0.31178874E-01  0.89738786E-02
  0.53867436E-02 -0.29372901E-01  0.16496118E-01
  0.15196671E-01 -0.22532826E-01 -0.10900952E-01
 -0.30075294E-02 -0.21465701E-01  0.15962838E-02
  0.12562433E-02  0.11682010E-01  0.23467136E-01
  0.72323465E-02 -0.53699108E-02  0.47668547E-02
  0.22142824E-02 -0.49682679E-02  0.24912371E-02
  0.19451749E-01 -0.13144584E-02 -0.18200851E-01
 -0.19715336E-01  0.19367487E-01  0.56406499E-02
 -0.36526586E-01 -0.83105450E-02  0.33044199E-03
 -0.20249145E-01 -0.18543678E-01  0.13736375E-02
 -0.68326389E-03  0.27550010E-01 -0.42190279E-01
  0.95768686E-02 -0.25740697E-01  0.45604046E-01
 -0.28612287E-01  0.23324141E-01  0.28250462E-01
  0.54651984E-02 -0.32805580E-01  0.94683517E-02
 -0.63923969E-02  0.23225403E-01  0.65108332E-02
 -0.15393093E-01  0.20722875E-01 -0.10433778E-01
  0.43777699E-02 -0.15171385E-01  0.37280369E-03
  0.25217952E-01 -0.10170840E-01  0.33900981E-01
 -0.14975651E-01  0.19962734E-01  0.77119447E-02
 -0.29399696E-01 -0.14697349E-01 -0.71856270E-02
  0.29500325E-01 -0.21581395E-01  0.23733856E-01
 -0.10260294E-01 -0.72970602E-02  0.22088598E-01
 -0.18898361E-03 -0.21056260E-01 -0.15379822E-01
 -0.76161815E-02 -0.10987148E-01 -0.11275878E-01
  0.17074604E-01 -0.57902371E-02 -0.29111311E-01
  0.19211593E-02 -0.18317699E-01 -0.35692488E-02
 -0.23136795E-01  0.22689615E-02  0.63179119E-02
  0.23426395E-01  0.21588617E-02  0.16541319E-01
 -0.14231885E-01  0.99317562E-02  0.40398028E-01
 -0.10584538E-01  0.10063810E-02 -0.18980728E-01
  0.81434143E-02 -0.41512790E-02  0.31916461E-01
 -0.17648356E-01  0.20486555E-01  0.18057028E-02
  0.71801719E-02 -0.33329227E-01  0.12149960E-01
  0.16699082E-01 -0.25674102E-01  0.71977753E-02
  0.98898092E-02 -0.23578744E-01 -0.25314523E-02
  0.11008284E-01  0.71904542E-02  0.24405924E-02
 -0.50639117E-02 -0.10362781E-01  0.22792649E-01
 -0.72811858E-03  0.79559283E-02  0.25557696E-02
 -0.19477577E-01  0.19342959E-01 -0.59913552E-02
  0.11510274E-03 -0.64404965E-02 -0.89858999E-02
 -0.21017095E-01 -0.14060342E-01  0.64989668E-02
 -0.16089570E-03  0.23721493E-02 -0.18679355E-01
 -0.19330558E-01 -0.57627715E-03  0.43815591E-02
 -0.18355836E-01 -0.36331610E-02  0.34305934E-01
 -0.35861434E-02  0.14394977E-01 -0.66859279E-03
  0.10969351E-01 -0.65214095E-02  0.16950330E-01
  0.19292649E-02 -0.96971544E-02 -0.52466928E-03
 -0.31695276E-02  0.24938637E-01 -0.22081406E-01
  0.23445809E-01  0.79085005E-02  0.89838656E-02
  0.82367821E-02  0.38036284E-02  0.10345735E-01
 -0.15726857E-01 -0.16794601E-01 -0.74883672E-02
 -0.15074040E-01 -0.43876726E-02 -0.11491113E-01
 -0.31353509E-01 -0.13558143E-01  0.16123956E-01
 -0.29587799E-01 -0.58553330E-02  0.13606543E-01
  0.12207673E-01 -0.30866242E-01  0.17592517E-01
  0.10701129E-01 -0.80313432E-03 -0.97765252E-02
 -0.96865354E-02 -0.17843027E-01 -0.14563800E-01
 -0.24951995E-01  0.14816539E-01  0.45444615E-02
  0.29489343E-01  0.16002595E-01 -0.31752827E-01
 -0.86952429E-03  0.40823411E-01  0.12797599E-01
  0.22507006E-01 -0.64766811E-02 -0.24404760E-01
  0.48162517E-02 -0.61699846E-02 -0.22440939E-02
  0.97038785E-04  0.14286175E-01  0.65319484E-03
  0.37202285E-02 -0.62332906E-02 -0.17442477E-01
 -0.16892292E-01  0.11648427E-01 -0.28474768E-02
 -0.23366535E-01  0.18981158E-01 -0.19655954E-01
 -0.13355571E-01  0.79671545E-02  0.25242879E-02
 
           1
   2.00000000000000     
  0.10000000E+01  0.00000000E+00  0.00000000E+00  0.00000000E+00
  0.47602022E+00  0.39052859E-01  0.88430790E+00
  0.16323087E+00  0.17116173E+00  0.15375026E+00
  0.28874378E+00  0.26704991E+00  0.74134152E+00
  0.40768922E+00  0.72690497E+00  0.95211137E+00
  0.91495170E+00  0.36044424E+00  0.29059970E+00
  0.21013041E+00  0.93530075E+00  0.56203324E+00
  0.45459209E+00  0.29496433E+00  0.21154060E+00
  0.48535419E+00  0.85116545E+00  0.45544904E+00
  0.78296961E-01  0.66029606E+00  0.99961100E+00
  0.53388993E+00  0.36809449E+00  0.77808832E+00
  0.83370990E+00  0.75175771E+00  0.82751539E+00
  0.81863521E+00  0.55906936E+00  0.54599092E-01
  0.63931867E+00  0.16715314E+00  0.35645407E+00
  0.77409880E+00  0.72603644E+00  0.52661443E+00
  0.16967108E+00  0.95399834E+00  0.96105179E+00
  0.17783352E+00  0.34592231E+00  0.98038288E+00
  0.84667180E+00  0.48626024E+00  0.67901602E+00
  0.92577536E+00  0.63231497E-01  0.86935952E+00
  0.61118362E+00  0.63325614E+00  0.80911730E+00
  0.53402304E-03  0.18892433E+00  0.58571748E+00
  0.16764252E+00  0.92837095E+00  0.25859597E+00
  0.26043760E+00  0.52356365E+00  0.16592938E+00
  0.11660550E+00  0.51653572E+00  0.54921979E+00
  0.45427853E-01  0.69515525E+00  0.35278802E+00
  0.45413775E+00  0.93911334E+00  0.18733879E+00
  0.76044944E+00  0.88166551E+00  0.20355211E+00
  0.47958997E+00  0.97446051E-01  0.61022754E+00
  0.84303335E+00  0.28765006E+00  0.89759845E+00
  0.85310750E+00  0.45648804E-01  0.44536276E+00
  0.24950939E+00  0.75493118E+00  0.75939394E+00
  0.14814591E+00  0.50575318E+00  0.95106905E+00
  0.75841978E+00  0.27812496E+00  0.36001713E+00
  0.70596447E+00  0.68298104E-01  0.46724782E+00
  0.70637200E+00  0.79458700E+00  0.40473293E+00
  0.34535677E+00  0.44164146E+00  0.24208668E+00
  0.94428192E+00  0.64783146E+00  0.71646392E-01
  0.25773416E+00  0.95101164E+00  0.12521677E+00
  0.35610354E+00  0.40403726E+00  0.78779972E+00
  0.78833953E-01  0.52761029E-01  0.22211472E+00
  0.99703207E+00  0.24710070E+00  0.91021425E+00
  0.96310182E+00  0.74872568E+00  0.45904459E+00
  0.15946912E+00  0.33039878E+00  0.81392395E+00
  0.75926116E+00  0.35302914E+00  0.63026354E+00
  0.55756938E-01  0.67239275E+00  0.85204105E+00
  0.16049469E+00  0.11434346E+00  0.58232087E+00
  0.51075977E+00  0.96455456E+00  0.56265548E+00
  0.30224019E+00  0.18963156E+00  0.24835171E+00
  0.50794848E+00  0.82701428E+00  0.92985480E+00
  0.31991979E+00  0.19335286E-01  0.87211116E+00
  0.88722256E+00  0.41100336E+00  0.81232841E+00
  0.47828932E+00  0.19879232E+00  0.88549636E+00
  0.89088933E+00  0.40947120E+00  0.81152805E-03
  0.69331859E-01  0.78950629E+00  0.22608737E+00
  0.56227700E+00  0.89229403E+00  0.31177476E+00
  0.55062755E+00  0.18357479E+00  0.49954341E+00
  0.49904833E-02  0.49449681E-01  0.29154148E-01
  0.77990149E+00  0.84282609E+00  0.71468429E-01
  0.35224132E+00  0.85220632E+00  0.68956221E+00
  0.57934687E+00  0.74877542E-01  0.74398240E+00
  0.55215558E+00  0.52537857E+00  0.72319478E+00
  0.98378387E+00  0.33001504E+00  0.62560423E+00
  0.74608024E+00  0.57948078E+00  0.55367910E+00
  0.36514282E+00  0.63156968E+00  0.80063913E+00
  0.89766993E+00  0.86186319E+00  0.25547459E+00
  0.18781827E+00  0.66251918E+00  0.44490753E+00
  0.33040871E+00  0.41209394E+00  0.99902265E+00
  0.91957924E+00  0.18411543E+00  0.44591135E+00
  0.23048777E+00  0.16871228E+00  0.13795895E-01
  0.22351076E+00  0.28646873E+00  0.61803061E+00
  0.43188142E+00  0.80959524E+00  0.14660647E+00
  0.47713659E+00  0.19087172E-01  0.38683026E-01
  0.55026554E+00  0.29130784E+00  0.10080634E+00
  0.93179213E+00  0.95820186E+00  0.53521381E+00
  0.28735312E+00  0.82170235E+00  0.93873320E+00
  0.69282576E+00  0.79879185E+00  0.83595214E+00
  0.48815244E+00  0.56891823E+00  0.94396169E+00
  0.77321970E+00  0.12765899E+00  0.87971972E+00
  0.68857736E+00  0.31776044E+00  0.87388617E+00
  0.52182161E+00  0.13960782E+00  0.24591668E+00
  0.16008247E+00  0.96556316E+00  0.42609598E+00
  0.49389105E+00  0.70300435E+00  0.46717406E+00
  0.70560564E+00  0.55520802E+00  0.14129441E+00
  0.72858458E-01  0.55421676E-02  0.85637531E+00
  0.70175055E+00  0.35803949E-01  0.26394830E+00
  0.96991230E+00  0.48445879E+00  0.21486076E+00
  0.49109456E+00  0.29965950E+00  0.37908979E+00
  0.45874389E+00  0.27545109E+00  0.67346115E+00
  0.83115649E+00  0.76358692E+00  0.67220718E+00
  0.33425417E+00  0.44923820E-01  0.61324250E+00
  0.14294291E+00  0.80089857E+00  0.62613648E+00
  0.81765748E-01  0.83566545E+00  0.15738825E-01
  0.96055705E+00  0.57714047E+00  0.61385303E+00
  0.18978353E+00  0.56482262E+00  0.66158173E+00
  0.75321553E+00  0.61713333E+00  0.93017496E+00
  0.41466977E-01  0.42260309E+00  0.40392576E+00
  0.13007354E+00  0.32177601E+00  0.15585323E+00
  0.33004560E+00  0.92932171E+00  0.28536828E+00
  0.74441423E+00  0.57854293E+00  0.75456515E+00
  0.65209535E+00  0.72314364E+00  0.61314309E+00
  0.32250940E+00  0.66657105E+00  0.81307650E-01
  0.91693597E+00  0.13226906E+00  0.70346684E+00
  0.95761005E+00  0.23864871E+00  0.21939853E+00
  0.86327419E+00  0.89923054E+00  0.88106572E+00
  0.34511990E+00  0.91040707E+00  0.46880352E+00
  0.16221162E+00  0.56975358E+00  0.27581582E+00
 -0.10370747E-04 -0.74454798E-03 -0.45153955E-03
 -0.30444219E-03  0.44462408E-04  0.15315579E-02
 -0.28679306E-03  0.16074577E-02  0.31175603E-03
 -0.16738742E-02  0.80956222E-03  0.25745163E-03
  0.12246175E-02 -0.38275446E-03 -0.65868301E-03
 -0.10891098E-02  0.10498311E-02 -0.29659959E-03
  0.53810296E-03 -0.46973249E-03 -0.37082130E-03
 -0.13850412E-02  0.22782526E-03 -0.36965831E-03
  0.33336838E-03 -0.64774044E-03 -0.16392864E-03
 -0.11512993E-02 -0.61276550E-03 -0.74984728E-03
  0.78071729E-03  0.87236783E-03 -0.18842455E-04
  0.12326487E-02  0.20293489E-03  0.24342785E-04
  0.11229836E-02  0.25901660E-03 -0.56941905E-04
  0.31679208E-03 -0.55640276E-03  0.27929032E-03
  0.63486002E-03  0.28883493E-03  0.30870682E-03
 -0.28140277E-03  0.10027562E-02  0.53907832E-05
  0.17880982E-03 -0.18187171E-03 -0.72221158E-03
  0.14676923E-03 -0.50197800E-04  0.59437200E-03
  0.85658488E-03 -0.41078544E-03 -0.49557396E-03
 -0.13785730E-03  0.25811719E-03  0.93399467E-04
  0.99187043E-04 -0.21672546E-03  0.11683596E-02
 -0.14185137E-03 -0.13613035E-02 -0.32926101E-03
 -0.49799669E-03  0.57557795E-03  0.11797141E-03
 -0.22403124E-03  0.11484028E-02  0.11019867E-02
  0.50920972E-04 -0.52570817E-03 -0.10036513E-02
  0.10435258E-02 -0.25119589E-03  0.59299411E-04
  0.14550002E-02 -0.19077981E-03 -0.12696426E-02
  0.38222993E-03  0.92436088E-03 -0.15290085E-02
  0.15492611E-03  0.84545525E-03  0.64770947E-03
 -0.44510188E-03 -0.16796440E-02 -0.11000667E-02
  0.52116734E-02 -0.24023157E-02  0.81995245E-03
 -0.61064420E-02  0.14143608E-02 -0.60296754E-03
  0.12783099E-02  0.31848348E-03 -0.49877632E-03
 -0.80283708E-03 -0.19102289E-02  0.93614651E-03
 -0.64037743E-03  0.82101977E-03  0.10254889E-02
 -0.37516624E-02 -0.21361117E-02  0.12473163E-02
  0.38663071E-02  0.25266822E-02  0.33279671E-02
 -0.46160028E-02  0.51449762E-02  0.13937056E-02
  0.93743641E-03 -0.46688198E-02  0.25343473E-02
  0.24605568E-02 -0.35248447E-02 -0.18631371E-02
 -0.28011615E-03 -0.36771965E-02  0.16030593E-03
  0.15558518E-03  0.20596452E-02  0.36227642E-02
  0.11637844E-02 -0.11753270E-02  0.69452278E-03
  0.48948920E-03 -0.98536338E-03  0.53424444E-03
  0.37256560E-02 -0.54041675E-04 -0.31260386E-02
 -0.37192102E-02  0.34796276E-02  0.87240891E-03
 -0.59113634E-02 -0.14007503E-02  0.35400398E-03
 -0.36559540E-02 -0.33592815E-02  0.39806196E-03
 -0.18274296E-04  0.46326516E-02 -0.70621345E-02
  0.14697334E-02 -0.41433768E-02  0.74357024E-02
 -0.46979518E-02  0.37899948E-02  0.47668169E-02
  0.11858802E-02 -0.55124206E-02  0.13707900E-02
 -0.14127166E-02  0.37449755E-02  0.10146147E-02
 -0.23044572E-02  0.33469013E-02 -0.14536944E-02
  0.68597068E-03 -0.23518676E-02  0.22294740E-04
  0.42833790E-02 -0.17969890E-02  0.58270282E-02
 -0.25070463E-02  0.35683682E-02  0.17938172E-02
 -0.46233305E-02 -0.21833991E-02 -0.14504910E-02
  0.51295245E-02 -0.34759323E-02  0.39328049E-02
 -0.15352672E-02 -0.79781272E-03  0.38344736E-02
 -0.16397324E-03 -0.36773778E-02 -0.25129323E-02
 -0.15045042E-02 -0.14285426E-02 -0.16490053E-02
  0.31286029E-02 -0.14557408E-02 -0.48607202E-02
  0.27615376E-03 -0.32157702E-02 -0.76075860E-03
 -0.34714944E-02  0.46211733E-03  0.99199704E-03
  0.43450023E-02  0.60671128E-03  0.26076935E-02
 -0.26296026E-02  0.15547204E-02  0.67086021E-02
 -0.17650442E-02  0.65874806E-04 -0.28738896E-02
  0.13513645E-02 -0.97779165E-03  0.55956924E-02
 -0.30990184E-02  0.38984805E-02  0.58618913E-03
  0.11092505E-02 -0.55045056E-02  0.16476680E-02
  0.26940318E-02 -0.44626436E-02  0.13263035E-02
  0.15548998E-02 -0.38779282E-02 -0.69649868E-03
  0.22413568E-02  0.11679688E-02  0.78652659E-03
 -0.50612495E-03 -0.15866508E-02  0.39032119E-02
 -0.44692669E-03  0.10609074E-02  0.58456990E-03
 -0.35079874E-02  0.32138486E-02 -0.11322144E-02
  0.45860733E-03 -0.13289594E-02 -0.13420797E-02
 -0.34693705E-02 -0.22335805E-02  0.11819379E-02
  0.32986344E-03  0.43296088E-03 -0.24647790E-02
 -0.31284307E-02 -0.49076532E-04  0.70686356E-03
 -0.22309260E-02 -0.56656646E-03  0.50079732E-02
 -0.83094471E-03  0.25011270E-02  0.47036598E-03
  0.15466018E-02 -0.10490070E-02  0.29662791E-02
  0.57259829E-03 -0.16871857E-02 -0.82975275E-05
 -0.66166753E-03  0.39993611E-02 -0.31653173E-02
  0.37590141E-02  0.13635613E-02  0.14833379E-02
  0.96335863E-03  0.48236264E-03  0.13611767E-02
 -0.22375310E-02 -0.28497425E-02 -0.14040783E-02
 -0.26180496E-02 -0.75122881E-03 -0.21425616E-02
 -0.51826700E-02 -0.18832136E-02  0.26982428E-02
 -0.54052180E-02 -0.83523543E-03  0.24547259E-02
  0.16865126E-02 -0.54658242E-02  0.24746754E-02
  0.19532016E-02 -0.39849363E-03 -0.14175832E-02
 -0.15222650E-02 -0.29724076E-02 -0.25446706E-02
 -0.42607268E-02  0.20385953E-02  0.10444521E-02
  0.49514482E-02  0.26924479E-02 -0.54098045E-02
  0.14715004E-04  0.66296277E-02  0.19173893E-02
  0.41706986E-02 -0.12832564E-02 -0.43849174E-02
  0.11334283E-02 -0.64505223E-03 -0.57610029E-03
 -0.23073763E-04  0.25205717E-02 -0.43901913E-04
  0.54697107E-03 -0.93120066E-03 -0.28190445E-02
 -0.30949548E-02  0.18190881E-02 -0.34513250E-03
 -0.33577226E-02  0.32585446E-02 -0.35351802E-02
 -0.21852300E-02  0.13061966E-02  0.60670910E-03
  0.00000000E+00  0.00000000E+00  0.00000000E+00
  0.00000000E+00  0.00000000E+00  0.00000000E+00
  0.00000000E+00  0.00000000E+00  0.00000000E+00
  0.00000000E+00  0.00000000E+00  0.00000000E+00
  0.00000000E+00  0.00000000E+00  0.00000000E+00
  0.00000000E+00  0.00000000E+00  0.00000000E+00
  0.00000000E+00  0.00000000E+00  0.00000000E+00
  0.00000000E+00  0.00000000E+00  0.00000000E+00
  0.00000000E+00  0.00000000E+00  0.00000000E+00
  0.00000000E+00  0.00000000E+00  0.00000000E+00
  0.00000000E+00  0.00000000E+00  0.00000000E+00
  0.00000000E+00  0.00000000E+00  0.00000000E+00
  0.00000000E+00  0.00000000E+00  0.00000000E+00
  0.00000000E+00  0.00000000E+00  0.00000000E+00
  0.00000000E+00  0.00000000E+00  0.00000000E+00
  0.00000000E+00  0.00000000E+00  0.00000000E+00
  0.00000000E+00  0.00000000E+00  0.00000000E+00
  0.00000000E+00  0.00000000E+00  0.00000000E+00
  0.00000000E+00  0.00000000E+00  0.00000000E+00
  0.00000000E+00  0.00000000E+00  0.00000000E+00
  0.00000000E+00  0.00000000E+00  0.00000000E+00
  0.00000000E+00  0.00000000E+00  0.00000000E+00
  0.00000000E+00  0.00000000E+00  0.00000000E+00
  0.00000000E+00  0.00000000E+00  0.00000000E+00
  0.00000000E+00  0.00000000E+00  0.00000000E+00
  0.00000000E+00  0.00000000E+00  0.00000000E+00
  0.00000000E+00  0.00000000E+00  0.00000000E+00
  0.00000000E+00  0.00000000E+00  0.00000000E+00
  0.00000000E+00  0.00000000E+00  0.00000000E+00
  0.00000000E+00  0.00000000E+00  0.00000000E+00
  0.00000000E+00  0.00000000E+00  0.00000000E+00
  0.00000000E+00  0.00000000E+00  0.00000000E+00
  0.00000000E+00  0.00000000E+00  0.00000000E+00
  0.00000000E+00  0.00000000E+00  0.00000000E+00
  0.00000000E+00  0.00000000E+00  0.00000000E+00
  0.00000000E+00  0.00000000E+00  0.00000000E+00
  0.00000000E+00  0.00000000E+00  0.00000000E+00
  0.00000000E+00  0.00000000E+00  0.00000000E+00
  0.00000000E+00  0.00000000E+00  0.00000000E+00
  0.00000000E+00  0.00000000E+00  0.00000000E+00
  0.00000000E+00  0.00000000E+00  0.00000000E+00
  0.00000000E+00  0.00000000E+00  0.00000000E+00
  0.00000000E+00  0.00000000E+00  0.00000000E+00
  0.00000000E+00  0.00000000E+00  0.00000000E+00
  0.00000000E+00  0.00000000E+00  0.00000000E+00
  0.00000000E+00  0.00000000E+00  0.00000000E+00
  0.00000000E+00  0.00000000E+00  0.00000000E+00
  0.00000000E+00  0.00000000E+00  0.00000000E+00
  0.00000000E+00  0.00000000E+00  0.00000000E+00
  0.00000000E+00  0.00000000E+00  0.00000000E+00
  0.00000000E+00  0.00000000E+00  0.00000000E+00
  0.00000000E+00  0.00000000E+00  0.00000000E+00
  0.00000000E+00  0.00000000E+00  0.00000000E+00
  0.00000000E+00  0.00000000E+00  0.00000000E+00
  0.00000000E+00  0.00000000E+00  0.00000000E+00
  0.00000000E+00  0.00000000E+00  0.00000000E+00
  0.00000000E+00  0.00000000E+00  0.00000000E+00
  0.00000000E+00  0.00000000E+00  0.00000000E+00
  0.00000000E+00  0.00000000E+00  0.00000000E+00
  0.00000000E+00  0.00000000E+00  0.00000000E+00
  0.00000000E+00  0.00000000E+00  0.00000000E+00
  0.00000000E+00  0.00000000E+00  0.00000000E+00
  0.00000000E+00  0.00000000E+00  0.00000000E+00
  0.00000000E+00  0.00000000E+00  0.00000000E+00
  0.00000000E+00  0.00000000E+00  0.00000000E+00
  0.00000000E+00  0.00000000E+00  0.00000000E+00
  0.00000000E+00  0.00000000E+00  0.00000000E+00
  0.00000000E+00  0.00000000E+00  0.00000000E+00
  0.00000000E+00  0.00000000E+00  0.00000000E+00
  0.00000000E+00  0.00000000E+00  0.00000000E+00
  0.00000000E+00  0.00000000E+00  0.00000000E+00
  0.00000000E+00  0.00000000E+00  0.00000000E+00
  0.00000000E+00  0.00000000E+00  0.00000000E+00
  0.00000000E+00  0.00000000E+00  0.00000000E+00
  0.00000000E+00  0.00000000E+00  0.00000000E+00
  0.00000000E+00  0.00000000E+00  0.00000000E+00
  0.00000000E+00  0.00000000E+00  0.00000000E+00
  0.00000000E+00  0.00000000E+00  0.00000000E+00
  0.00000000E+00  0.00000000E+00  0.00000000E+00
  0.00000000E+00  0.00000000E+00  0.00000000E+00
  0.00000000E+00  0.00000000E+00  0.00000000E+00
  0.00000000E+00  0.00000000E+00  0.00000000E+00
  0.00000000E+00  0.00000000E+00  0.00000000E+00
  0.00000000E+00  0.00000000E+00  0.00000000E+00
  0.00000000E+00  0.00000000E+00  0.00000000E+00
  0.00000000E+00  0.00000000E+00  0.00000000E+00
  0.00000000E+00  0.00000000E+00  0.00000000E+00
  0.00000000E+00  0.00000000E+00  0.00000000E+00
  0.00000000E+00  0.00000000E+00  0.00000000E+00
  0.00000000E+00  0.00000000E+00  0.00000000E+00
  0.00000000E+00  0.00000000E+00  0.00000000E+00
  0.00000000E+00  0.00000000E+00  0.00000000E+00
  0.00000000E+00  0.00000000E+00  0.00000000E+00
  0.00000000E+00  0.00000000E+00  0.00000000E+00
  0.00000000E+00  0.00000000E+00  0.00000000E+00
  0.00000000E+00  0.00000000E+00  0.00000000E+00
  0.00000000E+00  0.00000000E+00  0.00000000E+00
  0.00000000E+00  0.00000000E+00  0.00000000E+00
  0.00000000E+00  0.00000000E+00  0.00000000E+00
  0.00000000E+00  0.00000000E+00  0.00000000E+00
  0.00000000E+00  0.00000000E+00  0.00000000E+00
  0.00000000E+00  0.00000000E+00  0.00000000E+00
  0.00000000E+00  0.00000000E+00  0.00000000E+00
  0.00000000E+00  0.00000000E+00  0.00000000E+00
  0.00000000E+00  0.00000000E+00  0.00000000E+00
