Built with Packmol                      
   1.00000000000000     
    11.8284812099999996    0.0000000000000000    0.0000000000000000
     0.0000000000000000   11.8284812099999996    0.0000000000000000
     0.0000000000000000    0.0000000000000000   11.8284812099999996
   Ta   O 
    30    75
Direct
  0.4067772147859417  0.0121190410174660  0.8323059442007500
  0.1591189179758062  0.1524916751253567  0.3962388643551540
  0.2285132471996241  0.3957608380117351  0.5660757830377936
  0.4765782263706317  0.7498759657835747  0.9565121840028487
  0.9666208529166146  0.1129769853552194  0.2173025279798561
  0.5301272532227147  0.0718361114738246  0.5734346111491810
  0.7069622684391950  0.2420396401379858  0.3464092963687106
  0.4929275571687676  0.6212095315099373  0.5402184375496232
  0.9825697243651192  0.5949556225991461  0.2521246767191605
  0.5756386655541897  0.3709113749781188  0.6381069014105578
  0.6577703159369246  0.0888423045690456  0.8387596968547884
  0.3181652884974913  0.3821931987527246  0.9160993425040089
  0.5254586057215636  0.2647637277611789  0.0314506288255477
  0.9045094818858629  0.8387144853620209  0.3360328554204420
  0.9698814269901537  0.7326755127960670  0.9635407768140363
  0.1515693821340147  0.1545836869147773  0.8066035142049499
  0.8197490061734134  0.4602328208688184  0.7237744593851383
  0.9103288361661771  0.0522096739346758  0.9497405163294320
  0.7562222133710237  0.9209635189656106  0.5537855019074714
  0.1940462606515273  0.8123459508806911  0.7855003879465309
  0.5622238653690617  0.7645422681776242  0.2458400561730582
  0.3279179958249715  0.4348877320730855  0.2715959935722954
  0.0338035172082967  0.6097936024801653  0.4971751327494825
  0.2444390271451542  0.6299555165342647  0.0690219676131800
  0.3561888772701054  0.0036003015621752  0.2572345001555343
  0.6596744333863593  0.0808622962170827  0.1482255677897364
  0.6700796304748766  0.7325778162746153  0.7651315697341772
  0.7473218202416069  0.4837270223342431  0.2510206770754740
  0.1373709729653945  0.8721408547302105  0.1759490348583124
  0.9620455017632369  0.4305397377050786  0.9812043401538787
  0.0388443402959210  0.6197421362148615  0.0944188744579723
  0.0959856792897811  0.9225287302405463  0.3326670180679718
  0.8156435168062806  0.4084540146028315  0.3676351696344155
  0.8982200315528875  0.9694649860015917  0.4478991379095420
  0.4507359452039988  0.4104871000195595  0.1864794267333040
  0.7837582744753266  0.3761883121827205  0.1329224971740873
  0.4754417418162519  0.1577491208015793  0.8490991818269398
  0.7077007749446086  0.0772871409983217  0.2908670178054337
  0.2713625959640698  0.9712714108401258  0.0896830122231716
  0.3158383371773999  0.5315931507492011  0.3795688907346565
  0.7142539986632715  0.0614489653537257  0.6146784897737935
  0.1027882898853887  0.3358343929580480  0.7544145040005272
  0.6315392731280904  0.3199889497056219  0.7656091548200741
  0.8206818313073977  0.7185156244843325  0.8373400617082634
  0.2545114067631821  0.3167568738837045  0.6933023567552138
  0.6103192300374799  0.9066885331455371  0.5398555526137716
  0.1795325644608338  0.1164605432394467  0.5419431753860103
  0.0990777170748166  0.8196399739707085  0.6761561258065333
  0.3762015918306224  0.8807876871155551  0.8937428669129396
  0.8736058308386313  0.1323102227405341  0.0902527630747043
  0.6089712597947566  0.2096268951811107  0.4646647096362447
  0.6077339105362733  0.6151203283565380  0.2250050785759038
  0.2140943610161659  0.7299422245251653  0.1807597436075649
  0.2618108015569545  0.0514923012375972  0.3746626113021839
  0.8853303893881976  0.2184542283267296  0.3483740857156234
  0.6353161533982474  0.2837282060717313  0.1930689962324882
  0.0615709347173178  0.8135292237015952  0.0581316650194235
  0.0625631907431784  0.0291966530265932  0.0122941237268552
  0.2601772857176824  0.2928556843893006  0.3787908093979581
  0.3144896600801669  0.7296718999002897  0.9480955831228184
  0.3401696331089620  0.1528070173111885  0.2198317982507042
  0.7153929052460765  0.5400453103682961  0.7692172318959513
  0.9742698981534602  0.3164135996200190  0.0730441301701931
  0.5248843177780527  0.8053788958523219  0.0913229837428794
  0.9984373738273964  0.4802180120383204  0.4189875296249820
  0.2306790715756199  0.2167199226552604  0.9397386207780494
  0.1115220084642480  0.2010340693267438  0.2397848557336100
  0.1186743618249331  0.3237130879021985  0.5205314445586496
  0.1527973903989776  0.4973212476180041  0.6386190742877018
  0.3068586599675225  0.5226572872887782  0.8812070502929713
  0.4227568857468713  0.9953011398877812  0.6715360731438457
  0.2958880174453837  0.8141398732074978  0.6651615414346397
  0.7335124004812607  0.7712909245480450  0.3280567688080221
  0.8366305217366251  0.6238971469250804  0.3039123805565600
  0.5960614166836549  0.9968162215893493  0.9512422544638419
  0.6133359085959851  0.6804261137035127  0.9182389544864198
  0.4882075018786002  0.2317153675000565  0.6364758992026881
  0.6761431232424593  0.1609484987871833  0.0034220925449640
  0.4793475844337575  0.3741177166007343  0.9172706454892228
  0.0010049611978943  0.7474044576470732  0.2514131748514415
  0.4041387152761362  0.7294131654770515  0.5790516619566094
  0.2562176703458117  0.4692220190855677  0.1038691004148110
  0.2481906569005455  0.0254851282776115  0.8209459319027499
  0.5288455095763157  0.0013253179130441  0.1871123944392665
  0.4371619992820460  0.8295190881981267  0.2996397303142829
  0.4318196995595728  0.4712944918578638  0.6221018116175381
  0.6212611646499406  0.6680868745860964  0.6400055626948284
  0.9199532659426567  0.5953031776747679  0.6599546587644994
  0.8626548365220699  0.4047615839099326  0.8734246682139165
  0.7723225211566491  0.8549091726000269  0.6844338740464572
  0.7802798819485197  0.9405786912100166  0.9917061219677625
  0.9924840626324979  0.5806959190494257  0.9354545885201577
  0.1221244447924864  0.6933448895415354  0.4195607761941559
  0.5252574321745719  0.8093344885997963  0.8052511979996838
  0.9175856664697256  0.9634582798366390  0.1885352485309384
  0.0143285848627308  0.1846535288821143  0.8673046376697410
  0.4553002076795459  0.0284532121775207  0.4603551881794414
  0.8344216361679677  0.1656451796608721  0.8203757804235735
  0.9188849879811498  0.7216967134768021  0.4517857435989360
  0.8942151343399848  0.5160386821046685  0.1641130241924228
  0.1612496500713645  0.6907196898877185  0.9216288559490343
  0.3690822480968215  0.6045167626198710  0.1802520399953234
  0.0307917517445811  0.8627113676102063  0.8407332035229289
  0.5819506648193346  0.6497533282051879  0.4003940258364220
  0.7005954424604202  0.4392934086428669  0.5747241508571714
 
  0.16822931E-03  0.87397374E-02  0.28773299E-02
 -0.64376459E-02  0.29018981E-02  0.39709725E-02
  0.39405028E-02  0.30288878E-02  0.23588835E-02
 -0.96593394E-03  0.21535023E-03 -0.59882287E-02
 -0.39440541E-02  0.36228266E-02  0.39418230E-02
  0.16375275E-04 -0.15549083E-02  0.61640472E-02
  0.21296450E-03 -0.26329275E-02  0.14195734E-03
 -0.27154272E-02 -0.40999142E-02  0.14745367E-02
 -0.19132653E-02 -0.43893629E-02  0.27658180E-02
  0.31097093E-02 -0.59069012E-03 -0.12519152E-02
 -0.29279844E-02  0.51447485E-02 -0.43336807E-02
  0.55119772E-02  0.67380664E-02 -0.21148384E-02
  0.16821315E-02  0.14949729E-02  0.48974975E-02
 -0.13159794E-02 -0.32524365E-02 -0.45775023E-02
  0.88246125E-02 -0.18325616E-02 -0.14378708E-02
 -0.37929108E-02  0.20497342E-02  0.59943868E-02
 -0.77864556E-03  0.10443110E-01  0.15204946E-02
 -0.94697615E-03  0.31145203E-02  0.53862854E-03
  0.87962009E-02  0.39181248E-02 -0.47780592E-02
  0.39926696E-02  0.14074642E-01 -0.75170130E-02
 -0.74353784E-03 -0.61580725E-02 -0.43868971E-02
  0.47309739E-02 -0.10511292E-01  0.62720792E-02
  0.18582901E-02 -0.40671016E-02 -0.56488413E-03
  0.30775059E-02  0.38256967E-02  0.14473922E-03
 -0.85642730E-02 -0.15874526E-02 -0.72302864E-02
 -0.65861496E-02 -0.10956629E-01  0.10396334E-01
  0.36537531E-02 -0.16588994E-02 -0.68591120E-02
 -0.10355925E-01  0.82384131E-03  0.34809289E-02
 -0.26140191E-03  0.68763881E-02  0.62360205E-03
  0.31001582E-02  0.22791281E-02  0.28769519E-02
 -0.15799121E-01  0.23562960E-02  0.65268066E-02
 -0.33390163E-01  0.26399400E-02  0.24525154E-02
 -0.14706988E-01 -0.21139831E-01 -0.12945826E-01
  0.55691969E-02  0.18750262E-01  0.29579940E-01
  0.26126320E-01 -0.17614775E-01 -0.56978385E-02
  0.22475008E-01 -0.26930344E-02 -0.32302319E-01
 -0.70129921E-02  0.10424710E-02  0.20086185E-02
  0.69993716E-02 -0.53127179E-02  0.27715088E-01
  0.86126562E-02 -0.20498543E-01 -0.22370977E-02
 -0.18205936E-01 -0.53989114E-02 -0.12946761E-01
  0.14508497E-01 -0.97585684E-03 -0.99000120E-02
 -0.16131030E-01  0.11395803E-01  0.27624386E-01
  0.23221170E-02  0.74362554E-02  0.12739321E-02
 -0.42691174E-02 -0.29711378E-01 -0.14453971E-01
 -0.13867933E-01 -0.10683031E-01 -0.41279060E-02
 -0.31256633E-01 -0.18987689E-01 -0.14134196E-01
 -0.42062402E-02 -0.18707211E-01 -0.59856193E-02
  0.10530478E-01  0.14955202E-01 -0.73852383E-02
  0.49659555E-02  0.14268027E-01  0.85390623E-02
  0.10990287E-01  0.16755498E-01 -0.81397972E-02
  0.13848819E-01 -0.23624297E-01  0.23836156E-02
  0.25972621E-01 -0.30374516E-01 -0.22566381E-01
 -0.21150641E-01 -0.24381546E-01  0.31637449E-01
  0.41965149E-02 -0.11825745E-01 -0.29239367E-01
 -0.30792797E-02 -0.46436904E-02  0.22519408E-01
  0.75885927E-02 -0.18695461E-01 -0.32828909E-02
 -0.11917896E-01  0.85715651E-02 -0.14264146E-01
 -0.13696034E-01  0.20324031E-01  0.14442457E-01
 -0.13312218E-01 -0.11677343E-01  0.29305720E-02
 -0.51046208E-02 -0.12942422E-01  0.11864477E-01
 -0.54675646E-02 -0.23177597E-01 -0.17758297E-01
  0.56971346E-02 -0.16892242E-01  0.83824100E-02
  0.62964586E-02 -0.73532213E-02 -0.11596856E-01
  0.22410953E-01 -0.14011529E-01  0.45867095E-02
 -0.74863237E-02  0.54539681E-02 -0.18416387E-01
  0.18924095E-01  0.20564200E-01  0.22046773E-01
 -0.91416772E-02 -0.33472941E-02 -0.10113278E-01
  0.12256982E-02 -0.22315378E-02 -0.29141728E-02
 -0.12198683E-01  0.18247649E-01  0.35955580E-02
 -0.18635433E-01  0.45310600E-02  0.16664862E-01
 -0.24643726E-02  0.14621667E-01 -0.33073620E-01
 -0.65123172E-02  0.22407320E-03 -0.11493397E-02
  0.93772887E-02 -0.25487137E-01  0.43309016E-03
  0.22578742E-01 -0.78089880E-02  0.27362605E-01
  0.32973848E-01 -0.21341816E-01 -0.85856058E-02
  0.39380074E-02 -0.25673764E-02 -0.10334748E-01
  0.11901170E-01 -0.31671357E-01  0.47274924E-02
  0.37740574E-01  0.43753922E-02  0.19731308E-01
  0.24479224E-01 -0.50073294E-02  0.87390357E-02
 -0.33814116E-01 -0.30007896E-02 -0.23710670E-02
 -0.20023098E-01 -0.24391365E-02  0.25978777E-01
  0.28507481E-01 -0.14093897E-01  0.41061092E-02
 -0.10443030E-02  0.82559103E-03  0.52826816E-02
 -0.18441678E-01  0.25425264E-01 -0.23501333E-01
 -0.18450477E-01 -0.74161930E-02 -0.20895266E-01
 -0.25464222E-02 -0.25230974E-02  0.17137135E-02
 -0.17636629E-01  0.20488775E-02  0.76965044E-02
 -0.83363657E-02 -0.51752640E-01 -0.21522436E-01
  0.18123669E-01  0.81740455E-02 -0.15173228E-01
 -0.25696196E-01  0.22606923E-01  0.60226799E-02
  0.42611875E-02  0.20504765E-01 -0.52275912E-02
  0.21289017E-01  0.65044451E-03 -0.35828952E-02
  0.63198067E-02  0.73339450E-02 -0.63081336E-02
 -0.24551414E-01 -0.12380166E-01 -0.24968552E-01
  0.15124762E-01  0.18664213E-02 -0.25568278E-01
 -0.18441815E-01  0.73282379E-02  0.42952641E-02
  0.70800139E-02 -0.16482831E-01 -0.59232961E-02
 -0.38398849E-02  0.23767582E-01 -0.26203842E-01
 -0.11324942E-01 -0.10501072E-01  0.18575499E-01
 -0.61818780E-02 -0.14953491E-01  0.12470936E-01
  0.39725008E-01 -0.98408498E-02 -0.32698629E-02
  0.58971442E-02 -0.67549456E-02  0.30791035E-02
  0.73278159E-02 -0.34253085E-02  0.33105045E-02
 -0.42647263E-02 -0.31734875E-02 -0.57946149E-03
 -0.17115484E-01  0.84438639E-02 -0.79681558E-02
 
           1
   2.00000000000000     
  0.10000000E+01  0.00000000E+00  0.00000000E+00  0.00000000E+00
  0.40680566E+00  0.13596786E-01  0.83279245E+00
  0.15803042E+00  0.15298234E+00  0.39691029E+00
  0.22917952E+00  0.39627297E+00  0.56647463E+00
  0.47641490E+00  0.74991238E+00  0.95549967E+00
  0.96595398E+00  0.11358955E+00  0.21796902E+00
  0.53013002E+00  0.71573202E-01  0.57447685E+00
  0.70699828E+00  0.24159446E+00  0.34643330E+00
  0.49246842E+00  0.62051630E+00  0.54046776E+00
  0.98224622E+00  0.59421345E+00  0.25259233E+00
  0.57616447E+00  0.37081150E+00  0.63789522E+00
  0.65727524E+00  0.89712196E-01  0.83802694E+00
  0.31909727E+00  0.38333249E+00  0.91574176E+00
  0.52574303E+00  0.26501650E+00  0.32278714E-01
  0.90428697E+00  0.83816455E+00  0.33525888E+00
  0.97137352E+00  0.73236566E+00  0.96329766E+00
  0.15092806E+00  0.15493026E+00  0.80761707E+00
  0.81961735E+00  0.46199858E+00  0.72403155E+00
  0.91016872E+00  0.52736288E-01  0.94983159E+00
  0.75770951E+00  0.92162601E+00  0.55297761E+00
  0.19472135E+00  0.81472574E+00  0.78422939E+00
  0.56209815E+00  0.76350104E+00  0.24509830E+00
  0.32871793E+00  0.43311045E+00  0.27265650E+00
  0.34117723E-01  0.60910592E+00  0.49707962E+00
  0.24495938E+00  0.63060238E+00  0.69046441E-01
  0.35474080E+00  0.33318896E-02  0.25601198E+00
  0.65856082E+00  0.79009712E-01  0.14998342E+00
  0.67069742E+00  0.73229732E+00  0.76397181E+00
  0.74557081E+00  0.48386632E+00  0.25160924E+00
  0.13732677E+00  0.87330354E+00  0.17605448E+00
  0.96256969E+00  0.43092510E+00  0.98169079E+00
  0.36172971E-01  0.62014055E+00  0.95522449E-01
  0.90339956E-01  0.92297510E+00  0.33308170E+00
  0.81315681E+00  0.40487962E+00  0.36544625E+00
  0.89916169E+00  0.97263534E+00  0.45290062E+00
  0.45515347E+00  0.40750873E+00  0.18551602E+00
  0.78755843E+00  0.37573296E+00  0.12746071E+00
  0.47425596E+00  0.15792539E+00  0.84943881E+00
  0.70888425E+00  0.76388849E-01  0.29555318E+00
  0.27281885E+00  0.96780545E+00  0.89304756E-01
  0.31276002E+00  0.53068028E+00  0.37737981E+00
  0.71670714E+00  0.61283964E-01  0.61300456E+00
  0.10006080E+00  0.33776123E+00  0.75908533E+00
  0.63193190E+00  0.32124630E+00  0.76582456E+00
  0.81995999E+00  0.71349192E+00  0.83489613E+00
  0.25216657E+00  0.31495055E+00  0.69260440E+00
  0.60503425E+00  0.90347803E+00  0.53746569E+00
  0.17882136E+00  0.11329746E+00  0.54093111E+00
  0.10085825E+00  0.82216865E+00  0.67490740E+00
  0.37704125E+00  0.88320017E+00  0.89518668E+00
  0.87546411E+00  0.13514330E+00  0.88876458E-01
  0.61131287E+00  0.20563242E+00  0.46506774E+00
  0.61212545E+00  0.60998450E+00  0.22118948E+00
  0.21051814E+00  0.72581971E+00  0.18610911E+00
  0.26252036E+00  0.49492764E-01  0.36971872E+00
  0.88480973E+00  0.21766906E+00  0.35218174E+00
  0.63659926E+00  0.28056711E+00  0.19251391E+00
  0.59555816E-01  0.81497853E+00  0.55719835E-01
  0.60247419E-01  0.32633110E-01  0.14736104E-01
  0.25792641E+00  0.29088124E+00  0.37928632E+00
  0.31362655E+00  0.72748355E+00  0.95010167E+00
  0.33924516E+00  0.14888807E+00  0.21682916E+00
  0.71635620E+00  0.53718911E+00  0.77063456E+00
  0.97533452E+00  0.31517029E+00  0.71083294E-01
  0.52867364E+00  0.80300978E+00  0.92098520E-01
  0.99717156E+00  0.48114019E+00  0.41587362E+00
  0.23387882E+00  0.22019699E+00  0.94346636E+00
  0.10997630E+00  0.20046810E+00  0.23807487E+00
  0.11888161E+00  0.32333577E+00  0.52003871E+00
  0.15073480E+00  0.50040662E+00  0.63922702E+00
  0.30370772E+00  0.52342341E+00  0.88402480E+00
  0.42234020E+00  0.99777342E+00  0.66594387E+00
  0.29478689E+00  0.81417776E+00  0.66496721E+00
  0.73509794E+00  0.76698147E+00  0.32813000E+00
  0.84044821E+00  0.62257678E+00  0.30853894E+00
  0.60163675E+00  0.99320767E+00  0.94979057E+00
  0.61400176E+00  0.67999201E+00  0.91649152E+00
  0.49021979E+00  0.22636027E+00  0.63727524E+00
  0.68252443E+00  0.16168831E+00  0.67583296E-02
  0.48348662E+00  0.37327106E+00  0.91874827E+00
  0.99528756E+00  0.74689707E+00  0.25101227E+00
  0.40075314E+00  0.72900075E+00  0.58344424E+00
  0.26103781E+00  0.46683897E+00  0.10456338E+00
  0.24801408E+00  0.25624722E-01  0.82183915E+00
  0.52572733E+00  0.56243083E-02  0.18313871E+00
  0.43404233E+00  0.82826513E+00  0.29610669E+00
  0.43138914E+00  0.47086788E+00  0.62239157E+00
  0.61827910E+00  0.66843331E+00  0.64130691E+00
  0.91854372E+00  0.58655266E+00  0.65631557E+00
  0.86571925E+00  0.40614368E+00  0.87085913E+00
  0.76797772E+00  0.85873163E+00  0.68545221E+00
  0.78100038E+00  0.94404571E+00  0.99082222E+00
  0.99608368E+00  0.58080590E+00  0.93484878E+00
  0.12319302E+00  0.69458494E+00  0.41849418E+00
  0.52110620E+00  0.80724121E+00  0.80102943E+00
  0.92014301E+00  0.96377386E+00  0.18421208E+00
  0.11210380E-01  0.18589261E+00  0.86803090E+00
  0.45649732E+00  0.25666239E-01  0.45935366E+00
  0.83377238E+00  0.16966388E+00  0.81594515E+00
  0.91697013E+00  0.71992116E+00  0.45492655E+00
  0.89316988E+00  0.51351029E+00  0.16622165E+00
  0.16796649E+00  0.68905577E+00  0.92107598E+00
  0.37007936E+00  0.60337461E+00  0.18077267E+00
  0.32030764E-01  0.86213220E+00  0.84129295E+00
  0.58122957E+00  0.64921674E+00  0.40029605E+00
  0.69770150E+00  0.44072113E+00  0.57337687E+00
  0.20453423E-04  0.14649756E-02  0.51601397E-03
 -0.10833958E-02  0.43467052E-03  0.64225507E-03
  0.60073198E-03  0.48939664E-03  0.42732852E-03
 -0.16532125E-03  0.19420994E-04 -0.98966376E-03
 -0.66257775E-03  0.58150534E-03  0.66014127E-03
 -0.15327702E-04 -0.27199713E-03  0.10221298E-02
  0.60704337E-05 -0.44403004E-03  0.31098731E-04
 -0.48276774E-03 -0.68820767E-03  0.26590680E-03
 -0.35300663E-03 -0.72600579E-03  0.43431226E-03
  0.56334756E-03 -0.87274915E-04 -0.20548843E-03
 -0.51187533E-03  0.85148484E-03 -0.76146947E-03
  0.94506674E-03  0.11686298E-02 -0.36693940E-03
  0.26502013E-03  0.24346410E-03  0.81621067E-03
 -0.18979048E-03 -0.56736426E-03 -0.80757375E-03
  0.14880850E-02 -0.30014811E-03 -0.18616916E-03
 -0.63638361E-03  0.28274974E-03  0.99903798E-03
 -0.17772967E-03  0.17603684E-02  0.30396864E-03
 -0.16538689E-03  0.52223880E-03  0.82414995E-04
  0.14602216E-02  0.63816374E-03 -0.78035043E-03
  0.65812480E-03  0.23818277E-02 -0.13025525E-02
 -0.16351211E-03 -0.10182108E-02 -0.76120697E-03
  0.82106605E-03 -0.17468103E-02  0.11027688E-02
  0.33896527E-03 -0.67124787E-03 -0.16277580E-03
  0.50947546E-03  0.66035427E-03  0.37699792E-04
 -0.14658741E-02 -0.28700839E-03 -0.11907028E-02
 -0.10900037E-02 -0.18265489E-02  0.17971427E-02
  0.58723788E-03 -0.29081747E-03 -0.12113165E-02
 -0.17607556E-02  0.11669656E-03  0.61480863E-03
 -0.60522584E-04  0.11434705E-02  0.99224987E-04
  0.52244430E-03  0.38098851E-03  0.45679756E-03
 -0.29366566E-02  0.42624580E-03  0.76249929E-03
 -0.55844234E-02  0.42737785E-03  0.68791033E-03
 -0.21098433E-02 -0.34077483E-02 -0.22007758E-02
  0.11155569E-02  0.34359068E-02  0.50999725E-02
  0.41522793E-02 -0.27551168E-02 -0.90048266E-03
  0.39866325E-02 -0.57247588E-03 -0.55183728E-02
 -0.13861182E-02  0.10325074E-03  0.11420050E-03
  0.10044491E-02 -0.11053046E-02  0.43094609E-02
  0.15785385E-02 -0.32388576E-02 -0.95668794E-03
 -0.31652177E-02 -0.11333087E-02 -0.26454091E-02
  0.25236491E-02 -0.37228994E-03 -0.18302354E-02
 -0.28256008E-02  0.21957044E-02  0.44981061E-02
  0.17466270E-03  0.12838313E-02 -0.16962559E-04
 -0.79907501E-03 -0.50865259E-02 -0.26660839E-02
 -0.24920742E-02 -0.14943328E-02 -0.12391553E-02
 -0.49079822E-02 -0.31256373E-02 -0.22572382E-02
 -0.56058122E-03 -0.31735504E-02 -0.12403831E-02
  0.19963933E-02  0.25681382E-02 -0.93674659E-03
  0.80319317E-03  0.24858162E-02  0.11972593E-02
  0.19611802E-02  0.27493196E-02 -0.12834938E-02
  0.21936145E-02 -0.40645585E-02  0.53244991E-03
  0.42492881E-02 -0.48927258E-02 -0.35497799E-02
 -0.34698873E-02 -0.44873918E-02  0.50928190E-02
  0.35505370E-03 -0.15030317E-02 -0.48306131E-02
 -0.42201125E-03 -0.47593310E-03  0.40485632E-02
  0.13874012E-02 -0.28382065E-02 -0.69273449E-03
 -0.18947270E-02  0.12356538E-02 -0.24230468E-02
 -0.20209070E-02  0.34109786E-02  0.24687136E-02
 -0.23805412E-02 -0.21102027E-02  0.59270379E-03
 -0.12458305E-02 -0.18402873E-02  0.16985082E-02
 -0.11727674E-02 -0.37482768E-02 -0.29153156E-02
  0.14109969E-02 -0.32517882E-02  0.11399998E-02
  0.87049235E-03 -0.10990214E-02 -0.20649817E-02
  0.37408795E-02 -0.24073498E-02  0.70057140E-03
 -0.13547462E-02  0.73334832E-03 -0.28406919E-02
  0.31755243E-02  0.33409935E-02  0.40189017E-02
 -0.11941412E-02 -0.27506684E-03 -0.16517414E-02
  0.91755542E-03  0.81394158E-04 -0.19862600E-03
 -0.18147128E-02  0.24821628E-02  0.62997661E-03
 -0.31097891E-02  0.63125333E-03  0.28639560E-02
 -0.50980644E-03  0.24133979E-02 -0.57606646E-02
 -0.88962277E-03  0.40941975E-05 -0.37782011E-03
  0.15206822E-02 -0.48406985E-02  0.19542558E-03
  0.39256234E-02 -0.11244262E-02  0.46643158E-02
  0.57263597E-02 -0.35805466E-02 -0.11219836E-02
  0.65401735E-03 -0.19059849E-03 -0.17662075E-02
  0.19757292E-02 -0.52195026E-02  0.97373496E-03
  0.65460046E-02  0.33590007E-03  0.35158725E-02
  0.41854542E-02 -0.77983952E-03  0.13538812E-02
 -0.58708641E-02 -0.89590292E-03 -0.20668273E-03
 -0.34371222E-02 -0.41994382E-03  0.44900212E-02
  0.50052063E-02 -0.20992871E-02  0.83352000E-03
 -0.19629247E-04  0.25441270E-03  0.98475000E-03
 -0.31228476E-02  0.42027482E-02 -0.39835313E-02
 -0.28753626E-02 -0.14214416E-02 -0.36236245E-02
 -0.67425895E-03 -0.47068809E-03  0.38852680E-03
 -0.27551529E-02  0.55702120E-03  0.17068682E-02
 -0.12467274E-02 -0.83267760E-02 -0.36754265E-02
  0.32895796E-02  0.15200569E-02 -0.22639942E-02
 -0.43328516E-02  0.40570163E-02  0.65442159E-03
  0.35811468E-03  0.32200128E-02 -0.77273799E-03
  0.37310594E-02  0.10641036E-03 -0.19476579E-03
  0.74929784E-03  0.11879285E-02 -0.84743900E-03
 -0.43447642E-02 -0.21722864E-02 -0.40946911E-02
  0.24776689E-02  0.49422381E-03 -0.46098265E-02
 -0.31848813E-02  0.14629989E-02  0.72394294E-03
  0.13995768E-02 -0.27883523E-02 -0.52856136E-03
 -0.26701887E-03  0.44505764E-02 -0.46288363E-02
 -0.19179679E-02 -0.19592107E-02  0.30983565E-02
 -0.74934536E-03 -0.21804873E-02  0.26036125E-02
  0.72357464E-02 -0.17375159E-02 -0.34717703E-03
  0.10186333E-02 -0.12673919E-02  0.67959951E-03
  0.13492900E-02 -0.51809567E-03  0.30464049E-03
 -0.36907520E-03 -0.54855246E-03 -0.50670796E-03
 -0.30921235E-02  0.14768752E-02 -0.13609601E-02
  0.00000000E+00  0.00000000E+00  0.00000000E+00
  0.00000000E+00  0.00000000E+00  0.00000000E+00
  0.00000000E+00  0.00000000E+00  0.00000000E+00
  0.00000000E+00  0.00000000E+00  0.00000000E+00
  0.00000000E+00  0.00000000E+00  0.00000000E+00
  0.00000000E+00  0.00000000E+00  0.00000000E+00
  0.00000000E+00  0.00000000E+00  0.00000000E+00
  0.00000000E+00  0.00000000E+00  0.00000000E+00
  0.00000000E+00  0.00000000E+00  0.00000000E+00
  0.00000000E+00  0.00000000E+00  0.00000000E+00
  0.00000000E+00  0.00000000E+00  0.00000000E+00
  0.00000000E+00  0.00000000E+00  0.00000000E+00
  0.00000000E+00  0.00000000E+00  0.00000000E+00
  0.00000000E+00  0.00000000E+00  0.00000000E+00
  0.00000000E+00  0.00000000E+00  0.00000000E+00
  0.00000000E+00  0.00000000E+00  0.00000000E+00
  0.00000000E+00  0.00000000E+00  0.00000000E+00
  0.00000000E+00  0.00000000E+00  0.00000000E+00
  0.00000000E+00  0.00000000E+00  0.00000000E+00
  0.00000000E+00  0.00000000E+00  0.00000000E+00
  0.00000000E+00  0.00000000E+00  0.00000000E+00
  0.00000000E+00  0.00000000E+00  0.00000000E+00
  0.00000000E+00  0.00000000E+00  0.00000000E+00
  0.00000000E+00  0.00000000E+00  0.00000000E+00
  0.00000000E+00  0.00000000E+00  0.00000000E+00
  0.00000000E+00  0.00000000E+00  0.00000000E+00
  0.00000000E+00  0.00000000E+00  0.00000000E+00
  0.00000000E+00  0.00000000E+00  0.00000000E+00
  0.00000000E+00  0.00000000E+00  0.00000000E+00
  0.00000000E+00  0.00000000E+00  0.00000000E+00
  0.00000000E+00  0.00000000E+00  0.00000000E+00
  0.00000000E+00  0.00000000E+00  0.00000000E+00
  0.00000000E+00  0.00000000E+00  0.00000000E+00
  0.00000000E+00  0.00000000E+00  0.00000000E+00
  0.00000000E+00  0.00000000E+00  0.00000000E+00
  0.00000000E+00  0.00000000E+00  0.00000000E+00
  0.00000000E+00  0.00000000E+00  0.00000000E+00
  0.00000000E+00  0.00000000E+00  0.00000000E+00
  0.00000000E+00  0.00000000E+00  0.00000000E+00
  0.00000000E+00  0.00000000E+00  0.00000000E+00
  0.00000000E+00  0.00000000E+00  0.00000000E+00
  0.00000000E+00  0.00000000E+00  0.00000000E+00
  0.00000000E+00  0.00000000E+00  0.00000000E+00
  0.00000000E+00  0.00000000E+00  0.00000000E+00
  0.00000000E+00  0.00000000E+00  0.00000000E+00
  0.00000000E+00  0.00000000E+00  0.00000000E+00
  0.00000000E+00  0.00000000E+00  0.00000000E+00
  0.00000000E+00  0.00000000E+00  0.00000000E+00
  0.00000000E+00  0.00000000E+00  0.00000000E+00
  0.00000000E+00  0.00000000E+00  0.00000000E+00
  0.00000000E+00  0.00000000E+00  0.00000000E+00
  0.00000000E+00  0.00000000E+00  0.00000000E+00
  0.00000000E+00  0.00000000E+00  0.00000000E+00
  0.00000000E+00  0.00000000E+00  0.00000000E+00
  0.00000000E+00  0.00000000E+00  0.00000000E+00
  0.00000000E+00  0.00000000E+00  0.00000000E+00
  0.00000000E+00  0.00000000E+00  0.00000000E+00
  0.00000000E+00  0.00000000E+00  0.00000000E+00
  0.00000000E+00  0.00000000E+00  0.00000000E+00
  0.00000000E+00  0.00000000E+00  0.00000000E+00
  0.00000000E+00  0.00000000E+00  0.00000000E+00
  0.00000000E+00  0.00000000E+00  0.00000000E+00
  0.00000000E+00  0.00000000E+00  0.00000000E+00
  0.00000000E+00  0.00000000E+00  0.00000000E+00
  0.00000000E+00  0.00000000E+00  0.00000000E+00
  0.00000000E+00  0.00000000E+00  0.00000000E+00
  0.00000000E+00  0.00000000E+00  0.00000000E+00
  0.00000000E+00  0.00000000E+00  0.00000000E+00
  0.00000000E+00  0.00000000E+00  0.00000000E+00
  0.00000000E+00  0.00000000E+00  0.00000000E+00
  0.00000000E+00  0.00000000E+00  0.00000000E+00
  0.00000000E+00  0.00000000E+00  0.00000000E+00
  0.00000000E+00  0.00000000E+00  0.00000000E+00
  0.00000000E+00  0.00000000E+00  0.00000000E+00
  0.00000000E+00  0.00000000E+00  0.00000000E+00
  0.00000000E+00  0.00000000E+00  0.00000000E+00
  0.00000000E+00  0.00000000E+00  0.00000000E+00
  0.00000000E+00  0.00000000E+00  0.00000000E+00
  0.00000000E+00  0.00000000E+00  0.00000000E+00
  0.00000000E+00  0.00000000E+00  0.00000000E+00
  0.00000000E+00  0.00000000E+00  0.00000000E+00
  0.00000000E+00  0.00000000E+00  0.00000000E+00
  0.00000000E+00  0.00000000E+00  0.00000000E+00
  0.00000000E+00  0.00000000E+00  0.00000000E+00
  0.00000000E+00  0.00000000E+00  0.00000000E+00
  0.00000000E+00  0.00000000E+00  0.00000000E+00
  0.00000000E+00  0.00000000E+00  0.00000000E+00
  0.00000000E+00  0.00000000E+00  0.00000000E+00
  0.00000000E+00  0.00000000E+00  0.00000000E+00
  0.00000000E+00  0.00000000E+00  0.00000000E+00
  0.00000000E+00  0.00000000E+00  0.00000000E+00
  0.00000000E+00  0.00000000E+00  0.00000000E+00
  0.00000000E+00  0.00000000E+00  0.00000000E+00
  0.00000000E+00  0.00000000E+00  0.00000000E+00
  0.00000000E+00  0.00000000E+00  0.00000000E+00
  0.00000000E+00  0.00000000E+00  0.00000000E+00
  0.00000000E+00  0.00000000E+00  0.00000000E+00
  0.00000000E+00  0.00000000E+00  0.00000000E+00
  0.00000000E+00  0.00000000E+00  0.00000000E+00
  0.00000000E+00  0.00000000E+00  0.00000000E+00
  0.00000000E+00  0.00000000E+00  0.00000000E+00
  0.00000000E+00  0.00000000E+00  0.00000000E+00
  0.00000000E+00  0.00000000E+00  0.00000000E+00
  0.00000000E+00  0.00000000E+00  0.00000000E+00
  0.00000000E+00  0.00000000E+00  0.00000000E+00
