Built with Packmol                      
   1.00000000000000     
    11.8284812099999996    0.0000000000000000    0.0000000000000000
     0.0000000000000000   11.8284812099999996    0.0000000000000000
     0.0000000000000000    0.0000000000000000   11.8284812099999996
   Ta   O 
    30    75
Direct
  0.1462257429106641  0.4631933176202502  0.4786264365573002
  0.2244400845439479  0.7289149660380786  0.9301417800123057
  0.1551273230861017  0.2333343104648028  0.6953595813035779
  0.4595551398832153  0.5088240896034522  0.7387764284086827
  0.1125345364353962  0.9578375592412693  0.7858580404394637
  0.3675367983780966  0.4780398124238922  0.1668417872307202
  0.5866459400320508  0.2350153090225165  0.9764231907817089
  0.5236397982807770  0.6748005806901075  0.9048716126020780
  0.8775452658306522  0.5849393341149437  0.3387577060427194
  0.6763617229068200  0.9553535383745343  0.9436194776118783
  0.3578157861773447  0.2066548212173867  0.3016206009718317
  0.8074106056232149  0.7686271788497162  0.5052761827762792
  0.4537415604500978  0.4893657287359588  0.4488835583046921
  0.4785561994909366  0.9509784957953755  0.1581867348905056
  0.1829829253792466  0.9631227493591509  0.0864187584194411
  0.2948564258167048  0.0414639594724120  0.5433634608055370
  0.7625684027280760  0.6891792484692378  0.0500397497629105
  0.9906688858667039  0.1981755186093000  0.3574844940073267
  0.7553020689652631  0.2468759848471780  0.7686337894921462
  0.6972403336929717  0.3219601216890412  0.2441238762471102
  0.1629579693057375  0.8233130936218175  0.4810158045758508
  0.0779427071997025  0.4100895303992396  0.1769641746889836
  0.8922444949344882  0.7244763171053008  0.7792369227957454
  0.0703965031013239  0.4641389262953926  0.9108438941573179
  0.7530617128120971  0.2219522226565448  0.4907573509398117
  0.8685775069739863  0.9061403933659891  0.2268929100226953
  0.7257433899682169  0.9482890909797098  0.7032646852350642
  0.7864081978061044  0.4465934544771755  0.0169282662050562
  0.4714598093415808  0.8556062486465608  0.5759981141462589
  0.3636764258107678  0.7262067937822062  0.3418109040488580
  0.7709805327365709  0.3684549390635511  0.4053666873135167
  0.6067910213977428  0.5524962367454356  0.7834366614770858
  0.9699869442398487  0.9020324308653856  0.8201323749600163
  0.3433838154355843  0.6557559187037008  0.1918360400543746
  0.8364985820850716  0.4563659704452275  0.4363164055035965
  0.3634001364302448  0.5417030384502909  0.8654058525695496
  0.4131947148333475  0.2965387493665537  0.4291072463180093
  0.1532617288322332  0.3576259446719715  0.0487904337368634
  0.9531773457912136  0.3982166600731454  0.9869693931745963
  0.6855974568446388  0.3623360619020477  0.8981722204762759
  0.0551637684257999  0.4154244486732070  0.3327218664992072
  0.1803256451447794  0.7947625664998178  0.8004907710180037
  0.6429314461639583  0.8198389788877091  0.5017804863741665
  0.6683365047147301  0.1486824927098244  0.3957551977839924
  0.8788660938681054  0.6197731706666322  0.6506261270137578
  0.2865956568516584  0.0271906173262514  0.3689773752973509
  0.1662674746385155  0.3933238193224780  0.6238141911674661
  0.0604241479732888  0.1115528090676360  0.7605969446356374
  0.2748481742338856  0.1407185610649098  0.7304512397113260
  0.8024177331134741  0.4876959477148584  0.8860192421736650
  0.7160649918139054  0.1478985768359950  0.9343957356382431
  0.4131352111240404  0.7565241784582167  0.8561653448411620
  0.7585096862214512  0.0668590688431416  0.5876416565991932
  0.4348560358537533  0.6217618455299238  0.6194820415678980
  0.9082856280899800  0.5897933887451032  0.0623793752945544
  0.4304899201395238  0.0943351912562632  0.5829258794812030
  0.0429170668440469  0.5599829104792124  0.4447438379152445
  0.4064790747582889  0.9134737080605140  0.0371996685107765
  0.2953329736772391  0.3168812435683534  0.1766018586567431
  0.2003388850726622  0.1964329446785313  0.5547762301257896
  0.1507111319044066  0.7132823373865961  0.5683712784467493
  0.7979728162960550  0.6914442434523096  0.8957105448415186
  0.5968794622347678  0.8545343575777671  0.8383678364330792
  0.7580906224227525  0.7894805690852861  0.6926142898557733
  0.4829776345400805  0.3266367443764817  0.9122243867395884
  0.8217139528147618  0.8445500440611852  0.0611208147495688
  0.5664330995704484  0.3801890333673938  0.2128792370828498
  0.8827913889487171  0.2854452002456652  0.6888511240673708
  0.4131962119012321  0.4879562477941244  0.0243800780693490
  0.9222030932973164  0.7019645512257862  0.4242590411642159
  0.0293329798062139  0.6723013046691666  0.8504641971776903
  0.8673313498049039  0.8704608118073798  0.3660278675714803
  0.4409400945437025  0.8335925111341853  0.2662159613599252
  0.4903350692381688  0.6167725205542332  0.3544409877939977
  0.6650363880075474  0.2923930658909493  0.6385352951783153
  0.2478038448907873  0.9815683553223034  0.2128111780422973
  0.8426405230763687  0.1821241306087352  0.3078753090869235
  0.5692084266358834  0.9650968885000014  0.6806463611887054
  0.2812110912586481  0.5171541551791429  0.4271315182246275
  0.6520872824922795  0.5646414037640768  0.0218721033013094
  0.2237128541896680  0.8049675648726722  0.0800660199661148
  0.9810259107463855  0.0171198028489677  0.4507128355263507
  0.8008767858144841  0.9989289849802104  0.8303298680725369
  0.9362910559309432  0.2495021765750430  0.4846528999845874
  0.7527243278941868  0.4875447230997342  0.2861496292508974
  0.1633058303683664  0.3775169982453846  0.8166897436090355
  0.3870577204034567  0.9061034808694151  0.7043604102736352
  0.6369300096810152  0.7843523185521047  0.9883421722600696
  0.2172575217457629  0.2356039281949169  0.3190927881029910
  0.6307696528382941  0.9436072765572752  0.0861930918262967
  0.0280648511265887  0.9738497211332156  0.1567741305625145
  0.1258021737878919  0.0235693034114739  0.9144077446336931
  0.3265970702378174  0.8434729213093944  0.4881021440118258
  0.4361107404573425  0.1237733100217271  0.1745831205012882
  0.1851780938974213  0.5258086840365885  0.2453643139086575
  0.7527822010472121  0.0074287184071750  0.2264708173750309
  0.8185203222781893  0.7184563181177022  0.1983801791639440
  0.7833965463714125  0.2976616047194900  0.1029030510071031
  0.1714403248424012  0.9224595765961986  0.6383156554723448
  0.1791059755922220  0.5847599700017929  0.9606528847710444
  0.0421814137456293  0.2467110715544661  0.1906713480710295
  0.5047457031007344  0.4103078274027945  0.5798537676571895
  0.7594143882520416  0.6408699813559755  0.4515133909564404
  0.2117019186284604  0.7834291990088954  0.3484525310732683
  0.5468448012570056  0.0989770198557642  0.0321424402340134
 
  0.13093475E-01  0.36437132E-02 -0.33303353E-02
 -0.54417921E-02 -0.25104308E-02 -0.18998620E-02
 -0.18301267E-02  0.84074005E-02 -0.42503818E-02
  0.25580320E-02  0.21520128E-03 -0.11224752E-02
  0.45397574E-02  0.32658214E-02  0.60438580E-02
 -0.16965779E-02  0.84782172E-02 -0.29595313E-02
 -0.14038784E-03  0.34254219E-02 -0.97578026E-03
  0.21812399E-02 -0.81771377E-02 -0.31182889E-02
 -0.56183323E-02 -0.23373091E-02  0.24756334E-02
  0.37138481E-02 -0.11735115E-01 -0.37891309E-02
 -0.23714657E-02 -0.65094979E-02 -0.41145657E-02
 -0.27084199E-02 -0.20056791E-02  0.90358009E-02
 -0.52570854E-05 -0.38677575E-03 -0.22706979E-02
 -0.27704311E-03 -0.10548427E-02  0.38209762E-02
  0.14166564E-02  0.29419587E-02 -0.29064342E-02
 -0.73782736E-03  0.70337254E-02  0.14053880E-02
  0.33620093E-02  0.41552588E-02  0.81083154E-02
  0.78132096E-03 -0.14758581E-03 -0.13899148E-02
  0.12297452E-02 -0.43943654E-02 -0.60063969E-02
  0.44056118E-02 -0.57592949E-03 -0.35826301E-02
 -0.36686546E-02 -0.11258612E-01 -0.35703713E-02
  0.59282523E-02 -0.52278679E-02  0.58802769E-02
 -0.19227014E-02  0.27953823E-02  0.71669281E-02
 -0.43111607E-02 -0.45013051E-02  0.67054360E-02
 -0.72811448E-02  0.48362555E-02 -0.11375389E-02
  0.38450001E-03 -0.92362899E-03  0.46245834E-02
 -0.24870944E-03  0.35524200E-03  0.29906071E-02
  0.58837060E-03  0.28151547E-02  0.10039897E-02
  0.58895045E-02  0.43327677E-02  0.48140537E-02
 -0.38381392E-02  0.18786115E-02 -0.24902336E-02
  0.70846280E-02  0.10560471E-01  0.42768181E-01
 -0.28595044E-01 -0.12529024E-01 -0.26915990E-01
 -0.12456172E-01 -0.11613038E-01 -0.11848381E-01
  0.16007277E-01 -0.15055183E-01 -0.48678233E-02
 -0.96154010E-02  0.13132982E-01 -0.31710027E-01
 -0.19169897E-01 -0.73708121E-03  0.25961093E-02
  0.14997853E-01  0.20310428E-01 -0.17061547E-02
  0.23850646E-01 -0.75411167E-03 -0.29379383E-01
 -0.28943078E-02 -0.16279116E-02 -0.10195294E-01
 -0.10229065E-01 -0.15554149E-01  0.92455350E-02
  0.35119977E-02  0.93336681E-02  0.32511820E-01
  0.14152775E-01 -0.88307103E-02 -0.24839196E-02
 -0.22813657E-01 -0.63302965E-02 -0.90297194E-02
  0.43043440E-02  0.25287998E-02 -0.27827070E-01
 -0.18257439E-01 -0.70358081E-03 -0.59408211E-02
  0.32453719E-02  0.11998695E-01  0.45436686E-02
  0.18612574E-01  0.11726800E-01  0.11016436E-01
 -0.32753323E-01  0.28039630E-01  0.43334038E-01
 -0.10180483E-02 -0.13518386E-01 -0.20623506E-01
 -0.38881651E-03 -0.23005855E-01 -0.11660019E-01
 -0.12784159E-01 -0.76574173E-02 -0.10689407E-01
 -0.33575109E-01 -0.11565143E-01  0.16391671E-01
  0.21674587E-01  0.75551414E-02 -0.22507900E-01
 -0.47245149E-02 -0.47192331E-02  0.75594819E-02
  0.25737755E-01  0.16649222E-01 -0.22047164E-01
 -0.23274200E-01 -0.20432369E-01  0.12007689E-01
  0.11562936E-01  0.99654274E-02  0.70185773E-02
 -0.85920100E-04 -0.72428008E-02  0.16256091E-01
  0.26790659E-02 -0.33702723E-02 -0.14687640E-01
 -0.55414973E-02  0.78437009E-02  0.66677748E-02
  0.65038777E-02 -0.13710719E-02 -0.60635848E-02
  0.33065220E-02 -0.87543080E-02 -0.23044290E-01
  0.25916200E-01  0.41727602E-01 -0.24633807E-02
  0.26911014E-01  0.41265438E-01 -0.10211284E-01
 -0.23540414E-01  0.84432971E-02 -0.19211840E-01
 -0.15846411E-01  0.12388707E-01 -0.62702024E-02
 -0.19600561E-03 -0.30802024E-01  0.12560665E-01
  0.11705632E-01  0.15138944E-01  0.46074259E-01
  0.94110713E-02  0.46355054E-02 -0.10867631E-01
  0.16505576E-02 -0.66029969E-02 -0.50875763E-02
  0.88526818E-02  0.40122095E-02  0.66705491E-02
 -0.14138015E-01  0.62617890E-02  0.66358589E-02
 -0.36001912E-01  0.14862501E-02 -0.10658543E-01
 -0.33625219E-02  0.10004313E-01  0.20744142E-01
 -0.98493105E-02 -0.17261927E-01 -0.56321577E-02
  0.14932005E-01 -0.21845512E-02 -0.74778073E-02
  0.22219934E-01 -0.70709051E-02 -0.22550389E-01
  0.95761418E-02  0.13490446E-01  0.64010214E-03
  0.18821403E-02  0.67315284E-02 -0.10336148E-01
 -0.23050958E-02  0.15797202E-01 -0.31911351E-02
  0.77016451E-02 -0.78726535E-02 -0.16286339E-02
 -0.16141580E-01 -0.99954729E-02  0.46553143E-02
 -0.14259648E-01 -0.15991207E-01  0.43977575E-02
 -0.19082194E-02 -0.20919767E-03 -0.28414884E-01
  0.30139409E-01 -0.94576575E-02  0.15924475E-01
 -0.55328894E-02  0.15679626E-01  0.15196925E-01
 -0.12575520E-01 -0.11843956E-01 -0.15624575E-01
  0.12934795E-01  0.33695779E-01  0.10613800E-01
 -0.17727540E-01  0.63207915E-02 -0.19776771E-03
 -0.13281001E-01 -0.14897207E-01 -0.17959287E-01
  0.15345837E-01 -0.16217976E-01  0.22385498E-01
 -0.28805246E-02 -0.10522566E-01  0.11477656E-01
  0.12070607E-02 -0.20756833E-01 -0.17468816E-01
 -0.15027579E-01 -0.80444424E-02  0.11619810E-01
 -0.14385541E-01  0.18334365E-01 -0.23466602E-01
 -0.13199123E-01  0.14798197E-01  0.30121282E-01
 -0.16763847E-01  0.44425932E-02  0.10636160E-02
  0.24111163E-02 -0.18396373E-01 -0.15921974E-02
  0.30883752E-01  0.87293323E-02 -0.24774591E-01
  0.86157694E-02 -0.94993068E-02 -0.44193725E-01
  0.21814641E-01 -0.18846818E-01  0.99142412E-02
 -0.11027967E-01  0.16268208E-01 -0.61458699E-02
 -0.10651185E-01  0.20181200E-01 -0.40964406E-01
 -0.32177755E-02 -0.50891798E-03  0.83876281E-02
 -0.19533970E-01 -0.21318844E-01  0.71542142E-02
 
           1
   2.00000000000000     
  0.10000000E+01  0.00000000E+00  0.00000000E+00  0.00000000E+00
  0.14843963E+00  0.46380941E+00  0.47806333E+00
  0.22351997E+00  0.72849049E+00  0.92982054E+00
  0.15481788E+00  0.23475586E+00  0.69464091E+00
  0.45998766E+00  0.50886048E+00  0.73858664E+00
  0.11330213E+00  0.95838976E+00  0.78687996E+00
  0.36724994E+00  0.47947334E+00  0.16634138E+00
  0.58662220E+00  0.23559449E+00  0.97625820E+00
  0.52400861E+00  0.67341796E+00  0.90434436E+00
  0.87659530E+00  0.58454413E+00  0.33917629E+00
  0.67698967E+00  0.95336933E+00  0.94297880E+00
  0.35741481E+00  0.20555417E+00  0.30092490E+00
  0.80695266E+00  0.76828805E+00  0.50680399E+00
  0.45374067E+00  0.48930033E+00  0.44849962E+00
  0.47850936E+00  0.95080014E+00  0.15883280E+00
  0.18322246E+00  0.96362019E+00  0.85927329E-01
  0.29473167E+00  0.42653246E-01  0.54360109E+00
  0.76313686E+00  0.68988183E+00  0.51410731E-01
  0.99080099E+00  0.19815056E+00  0.35724948E+00
  0.75551000E+00  0.24613297E+00  0.76761821E+00
  0.69798525E+00  0.32186274E+00  0.24351811E+00
  0.16233766E+00  0.82140945E+00  0.48041211E+00
  0.78945076E-01  0.40920558E+00  0.17795843E+00
  0.89191940E+00  0.72494897E+00  0.78044873E+00
  0.69667557E-01  0.46337783E+00  0.91197767E+00
  0.75183059E+00  0.22276995E+00  0.49056501E+00
  0.86864252E+00  0.90598422E+00  0.22767485E+00
  0.72570134E+00  0.94834916E+00  0.70377035E+00
  0.78650768E+00  0.44706945E+00  0.17098024E-01
  0.47245563E+00  0.85633885E+00  0.57681209E+00
  0.36302746E+00  0.72652444E+00  0.34138985E+00
  0.77217843E+00  0.37024054E+00  0.41259808E+00
  0.60195607E+00  0.55037779E+00  0.77888561E+00
  0.96788081E+00  0.90006886E+00  0.81812901E+00
  0.34609038E+00  0.65321034E+00  0.19101297E+00
  0.83487278E+00  0.45858654E+00  0.43095477E+00
  0.36015882E+00  0.54157841E+00  0.86584481E+00
  0.41573060E+00  0.29997291E+00  0.42881876E+00
  0.15729448E+00  0.35749844E+00  0.43822867E-01
  0.95268797E+00  0.39794141E+00  0.98524554E+00
  0.68386789E+00  0.35970611E+00  0.89973549E+00
  0.55757589E-01  0.41700262E+00  0.33821908E+00
  0.18271864E+00  0.79326944E+00  0.80007078E+00
  0.63907404E+00  0.81876863E+00  0.50025371E+00
  0.66906430E+00  0.14911007E+00  0.39105010E+00
  0.87577906E+00  0.61965421E+00  0.64962163E+00
  0.28714440E+00  0.29219398E-01  0.36974563E+00
  0.16941455E+00  0.39530663E+00  0.62567689E+00
  0.54886104E-01  0.11629385E+00  0.76792401E+00
  0.27467604E+00  0.13843283E+00  0.72696415E+00
  0.80235199E+00  0.48380604E+00  0.88404773E+00
  0.71390340E+00  0.14660383E+00  0.93258833E+00
  0.40745822E+00  0.75456870E+00  0.85893690E+00
  0.76217450E+00  0.68136518E-01  0.58383594E+00
  0.43405720E+00  0.62096390E+00  0.62076022E+00
  0.91263746E+00  0.59260850E+00  0.58651566E-01
  0.42655464E+00  0.90880417E-01  0.58495618E+00
  0.44872168E-01  0.56166790E+00  0.44593056E+00
  0.40646455E+00  0.91224907E+00  0.39948304E-01
  0.29578596E+00  0.31631139E+00  0.17411842E+00
  0.19940191E+00  0.19775918E+00  0.55590364E+00
  0.15181083E+00  0.71305051E+00  0.56734603E+00
  0.79853189E+00  0.68996404E+00  0.89181414E+00
  0.60126146E+00  0.86158980E+00  0.83795132E+00
  0.76264083E+00  0.79645787E+00  0.69088773E+00
  0.47899734E+00  0.32806437E+00  0.90897598E+00
  0.81903459E+00  0.84664477E+00  0.60060628E-01
  0.56639996E+00  0.37498092E+00  0.21500304E+00
  0.88477062E+00  0.28800494E+00  0.69664152E+00
  0.41478747E+00  0.48874003E+00  0.22542542E-01
  0.92248218E+00  0.70084809E+00  0.42339882E+00
  0.30829821E-01  0.67297970E+00  0.85159208E+00
  0.86494085E+00  0.87151958E+00  0.36714988E+00
  0.43485277E+00  0.83384381E+00  0.26441378E+00
  0.48976652E+00  0.61846408E+00  0.35794848E+00
  0.66337103E+00  0.28947436E+00  0.63758299E+00
  0.25032860E+00  0.98119898E+00  0.21154680E+00
  0.84639755E+00  0.18092856E+00  0.30406241E+00
  0.57082759E+00  0.96737790E+00  0.68075459E+00
  0.28152933E+00  0.51829234E+00  0.42538385E+00
  0.65169753E+00  0.56731245E+00  0.21332535E-01
  0.22501507E+00  0.80363643E+00  0.79790645E-01
  0.97829664E+00  0.15429734E-01  0.45149997E+00
  0.79846572E+00  0.99622514E+00  0.83107346E+00
  0.93596841E+00  0.24946680E+00  0.47984841E+00
  0.75782040E+00  0.48594559E+00  0.28884219E+00
  0.16237031E+00  0.38016816E+00  0.81925929E+00
  0.38493141E+00  0.90410086E+00  0.70171855E+00
  0.63911707E+00  0.79004972E+00  0.99013679E+00
  0.21426009E+00  0.23667267E+00  0.31905935E+00
  0.62852406E+00  0.94108841E+00  0.83156474E-01
  0.30659578E-01  0.97110753E+00  0.16055915E+00
  0.12531512E+00  0.21790112E-01  0.91634843E+00
  0.32680116E+00  0.83996329E+00  0.48514846E+00
  0.43356983E+00  0.12241313E+00  0.17654784E+00
  0.18274574E+00  0.52890872E+00  0.24139650E+00
  0.75055045E+00  0.99308481E-02  0.23156383E+00
  0.81568583E+00  0.71920749E+00  0.19856002E+00
  0.78380423E+00  0.29455108E+00  0.10263384E+00
  0.17666226E+00  0.92393556E+00  0.63412668E+00
  0.18056276E+00  0.58315379E+00  0.95318046E+00
  0.45869908E-01  0.24352439E+00  0.19234768E+00
  0.50288106E+00  0.41305851E+00  0.57881460E+00
  0.75761345E+00  0.64428229E+00  0.44458699E+00
  0.21115785E+00  0.78334315E+00  0.34987074E+00
  0.54354193E+00  0.95372357E-01  0.33352099E-01
  0.22195963E-02  0.64936761E-03 -0.56039752E-03
 -0.93488318E-03 -0.41648936E-03 -0.32371723E-03
 -0.31358963E-03  0.14362068E-02 -0.75376557E-03
  0.42705644E-03  0.43490424E-04 -0.16848597E-03
  0.79247062E-03  0.56060651E-03  0.10545230E-02
 -0.26226933E-03  0.14402541E-02 -0.50444151E-03
 -0.19528552E-04  0.55094592E-03 -0.18206842E-03
  0.32194191E-03 -0.13761713E-02 -0.54007068E-03
 -0.93500760E-03 -0.37505107E-03  0.42887763E-03
  0.62970611E-03 -0.19756209E-02 -0.63998621E-03
 -0.40423923E-03 -0.10996637E-02 -0.69748927E-03
 -0.43237270E-03 -0.37102561E-03  0.15038624E-02
  0.24377003E-04 -0.31754164E-04 -0.40737304E-03
 -0.63172445E-04 -0.22919240E-03  0.65751240E-03
  0.29148248E-03  0.50155588E-03 -0.48270478E-03
 -0.11299146E-03  0.11654307E-02  0.23595818E-03
  0.55129832E-03  0.68896762E-03  0.13548489E-02
  0.11782479E-03  0.22604025E-04 -0.20307576E-03
  0.20688999E-03 -0.76910423E-03 -0.10011964E-02
  0.68565255E-03 -0.10280776E-03 -0.62214505E-03
 -0.57700075E-03 -0.19684715E-02 -0.64300458E-03
  0.99079590E-03 -0.87135186E-03  0.10156595E-02
 -0.36095683E-03  0.49182185E-03  0.12211111E-02
 -0.76453060E-03 -0.76211873E-03  0.11316757E-02
 -0.12571809E-02  0.82979805E-03 -0.22675114E-03
  0.71257091E-04 -0.18654994E-03  0.85842887E-03
 -0.19564242E-04  0.51522504E-04  0.54767650E-03
  0.96473545E-04  0.47235893E-03  0.14628882E-03
  0.98985493E-03  0.71291317E-03  0.76341318E-03
 -0.65051068E-03  0.33588220E-03 -0.38253717E-03
  0.13750764E-02  0.21029614E-02  0.70242441E-02
 -0.44635606E-02 -0.23076298E-02 -0.46680544E-02
 -0.20312952E-02 -0.16392924E-02 -0.18140984E-02
  0.26049286E-02 -0.24099224E-02 -0.10081533E-02
 -0.18737392E-02  0.22972246E-02 -0.56573157E-02
 -0.34988132E-02 -0.26923295E-03  0.89788078E-03
  0.24845423E-02  0.32488965E-02 -0.41335484E-04
  0.40636521E-02 -0.40155180E-03 -0.47208738E-02
 -0.45911904E-03 -0.13845986E-03 -0.18372114E-02
 -0.17361692E-02 -0.21234400E-02  0.17212387E-02
  0.74424491E-03  0.19194940E-02  0.51684369E-02
  0.23041193E-02 -0.15871900E-02 -0.51446522E-03
 -0.38083761E-02 -0.11357908E-02 -0.16250180E-02
  0.10307445E-02  0.32071291E-03 -0.45675076E-02
 -0.31448595E-02 -0.44839058E-03 -0.11741005E-02
  0.32867244E-03  0.17471722E-02  0.96192144E-04
  0.32405231E-02  0.18637692E-02  0.20991333E-02
 -0.54641460E-02  0.44885311E-02  0.76370207E-02
 -0.14329817E-03 -0.23486275E-02 -0.35820102E-02
 -0.39486282E-03 -0.42437803E-02 -0.12170876E-02
 -0.22846608E-02 -0.12396603E-02 -0.14530729E-02
 -0.52758699E-02 -0.20358915E-02  0.26774204E-02
  0.36097201E-02  0.11936291E-02 -0.39350879E-02
 -0.80554586E-03 -0.73802280E-03  0.12281451E-02
  0.45488737E-02  0.29730626E-02 -0.38015300E-02
 -0.39013055E-02 -0.33634781E-02  0.22216850E-02
  0.22091528E-02  0.14333316E-02  0.11048049E-02
  0.14424901E-03 -0.11720925E-02  0.28595780E-02
  0.83077301E-05 -0.94799554E-03 -0.24422857E-02
 -0.95503367E-03  0.15635568E-02  0.15810936E-02
  0.11402900E-02  0.22423227E-03 -0.12344311E-02
  0.53953925E-03 -0.15123558E-02 -0.37069102E-02
  0.41950285E-02  0.67507217E-02 -0.30316821E-03
  0.44714987E-02  0.68025770E-02 -0.15282132E-02
 -0.38889818E-02  0.15408794E-02 -0.30887468E-02
 -0.26662384E-02  0.18514377E-02 -0.90270259E-03
  0.35633309E-03 -0.52413628E-02  0.22512320E-02
  0.21564299E-02  0.26552748E-02  0.74810215E-02
  0.15629243E-02  0.76929553E-03 -0.21818678E-02
 -0.33768402E-03 -0.13663388E-02 -0.83362972E-03
  0.16279775E-02  0.82425227E-03  0.11477315E-02
 -0.22018140E-02  0.12772082E-02  0.35950024E-03
 -0.62120360E-02  0.90520725E-04 -0.18359804E-02
 -0.57586282E-03  0.17374354E-02  0.33316542E-02
 -0.18537582E-02 -0.26773001E-02 -0.10207381E-02
  0.23313947E-02 -0.41793881E-03 -0.11736822E-02
  0.36665205E-02 -0.13646477E-02 -0.37949410E-02
  0.14673970E-02  0.23041550E-02  0.29256905E-03
 -0.22767768E-03  0.10141995E-02 -0.17897596E-02
 -0.43628620E-03  0.26660400E-02 -0.68060698E-03
  0.14714823E-02 -0.12995534E-02  0.30415872E-04
 -0.29242376E-02 -0.19211130E-02  0.96727924E-03
 -0.22992395E-02 -0.27060946E-02  0.67618902E-03
 -0.17443351E-03 -0.23406003E-03 -0.51530973E-02
  0.52355421E-02 -0.16320941E-02  0.33805380E-02
 -0.69129254E-03  0.26384697E-02  0.24270017E-02
 -0.22111299E-02 -0.17756569E-02 -0.22053348E-02
  0.24029490E-02  0.61105493E-02  0.15956341E-02
 -0.25275006E-02  0.11647730E-02 -0.34204571E-03
 -0.19999407E-02 -0.24213855E-02 -0.35721260E-02
  0.24981299E-02 -0.26042352E-02  0.38610823E-02
 -0.87312222E-03 -0.18698941E-02  0.10361462E-02
 -0.17993097E-03 -0.35299569E-02 -0.30673879E-02
 -0.24844711E-02 -0.11315170E-02  0.16569363E-02
 -0.25016482E-02  0.32980355E-02 -0.35811045E-02
 -0.24504631E-02  0.26767552E-02  0.50798592E-02
 -0.28978360E-02  0.83811785E-03 -0.33991326E-03
  0.66804861E-03 -0.31146001E-02 -0.50440877E-03
  0.50775023E-02  0.13335254E-02 -0.36995450E-02
  0.15204238E-02 -0.14673773E-02 -0.75645060E-02
  0.37798557E-02 -0.33468174E-02  0.14822505E-02
 -0.17822858E-02  0.24795654E-02 -0.10842432E-02
 -0.13399015E-02  0.37841278E-02 -0.67364532E-02
 -0.52702046E-03  0.22305677E-03  0.20378719E-02
 -0.31630759E-02 -0.34448165E-02  0.13880223E-02
  0.00000000E+00  0.00000000E+00  0.00000000E+00
  0.00000000E+00  0.00000000E+00  0.00000000E+00
  0.00000000E+00  0.00000000E+00  0.00000000E+00
  0.00000000E+00  0.00000000E+00  0.00000000E+00
  0.00000000E+00  0.00000000E+00  0.00000000E+00
  0.00000000E+00  0.00000000E+00  0.00000000E+00
  0.00000000E+00  0.00000000E+00  0.00000000E+00
  0.00000000E+00  0.00000000E+00  0.00000000E+00
  0.00000000E+00  0.00000000E+00  0.00000000E+00
  0.00000000E+00  0.00000000E+00  0.00000000E+00
  0.00000000E+00  0.00000000E+00  0.00000000E+00
  0.00000000E+00  0.00000000E+00  0.00000000E+00
  0.00000000E+00  0.00000000E+00  0.00000000E+00
  0.00000000E+00  0.00000000E+00  0.00000000E+00
  0.00000000E+00  0.00000000E+00  0.00000000E+00
  0.00000000E+00  0.00000000E+00  0.00000000E+00
  0.00000000E+00  0.00000000E+00  0.00000000E+00
  0.00000000E+00  0.00000000E+00  0.00000000E+00
  0.00000000E+00  0.00000000E+00  0.00000000E+00
  0.00000000E+00  0.00000000E+00  0.00000000E+00
  0.00000000E+00  0.00000000E+00  0.00000000E+00
  0.00000000E+00  0.00000000E+00  0.00000000E+00
  0.00000000E+00  0.00000000E+00  0.00000000E+00
  0.00000000E+00  0.00000000E+00  0.00000000E+00
  0.00000000E+00  0.00000000E+00  0.00000000E+00
  0.00000000E+00  0.00000000E+00  0.00000000E+00
  0.00000000E+00  0.00000000E+00  0.00000000E+00
  0.00000000E+00  0.00000000E+00  0.00000000E+00
  0.00000000E+00  0.00000000E+00  0.00000000E+00
  0.00000000E+00  0.00000000E+00  0.00000000E+00
  0.00000000E+00  0.00000000E+00  0.00000000E+00
  0.00000000E+00  0.00000000E+00  0.00000000E+00
  0.00000000E+00  0.00000000E+00  0.00000000E+00
  0.00000000E+00  0.00000000E+00  0.00000000E+00
  0.00000000E+00  0.00000000E+00  0.00000000E+00
  0.00000000E+00  0.00000000E+00  0.00000000E+00
  0.00000000E+00  0.00000000E+00  0.00000000E+00
  0.00000000E+00  0.00000000E+00  0.00000000E+00
  0.00000000E+00  0.00000000E+00  0.00000000E+00
  0.00000000E+00  0.00000000E+00  0.00000000E+00
  0.00000000E+00  0.00000000E+00  0.00000000E+00
  0.00000000E+00  0.00000000E+00  0.00000000E+00
  0.00000000E+00  0.00000000E+00  0.00000000E+00
  0.00000000E+00  0.00000000E+00  0.00000000E+00
  0.00000000E+00  0.00000000E+00  0.00000000E+00
  0.00000000E+00  0.00000000E+00  0.00000000E+00
  0.00000000E+00  0.00000000E+00  0.00000000E+00
  0.00000000E+00  0.00000000E+00  0.00000000E+00
  0.00000000E+00  0.00000000E+00  0.00000000E+00
  0.00000000E+00  0.00000000E+00  0.00000000E+00
  0.00000000E+00  0.00000000E+00  0.00000000E+00
  0.00000000E+00  0.00000000E+00  0.00000000E+00
  0.00000000E+00  0.00000000E+00  0.00000000E+00
  0.00000000E+00  0.00000000E+00  0.00000000E+00
  0.00000000E+00  0.00000000E+00  0.00000000E+00
  0.00000000E+00  0.00000000E+00  0.00000000E+00
  0.00000000E+00  0.00000000E+00  0.00000000E+00
  0.00000000E+00  0.00000000E+00  0.00000000E+00
  0.00000000E+00  0.00000000E+00  0.00000000E+00
  0.00000000E+00  0.00000000E+00  0.00000000E+00
  0.00000000E+00  0.00000000E+00  0.00000000E+00
  0.00000000E+00  0.00000000E+00  0.00000000E+00
  0.00000000E+00  0.00000000E+00  0.00000000E+00
  0.00000000E+00  0.00000000E+00  0.00000000E+00
  0.00000000E+00  0.00000000E+00  0.00000000E+00
  0.00000000E+00  0.00000000E+00  0.00000000E+00
  0.00000000E+00  0.00000000E+00  0.00000000E+00
  0.00000000E+00  0.00000000E+00  0.00000000E+00
  0.00000000E+00  0.00000000E+00  0.00000000E+00
  0.00000000E+00  0.00000000E+00  0.00000000E+00
  0.00000000E+00  0.00000000E+00  0.00000000E+00
  0.00000000E+00  0.00000000E+00  0.00000000E+00
  0.00000000E+00  0.00000000E+00  0.00000000E+00
  0.00000000E+00  0.00000000E+00  0.00000000E+00
  0.00000000E+00  0.00000000E+00  0.00000000E+00
  0.00000000E+00  0.00000000E+00  0.00000000E+00
  0.00000000E+00  0.00000000E+00  0.00000000E+00
  0.00000000E+00  0.00000000E+00  0.00000000E+00
  0.00000000E+00  0.00000000E+00  0.00000000E+00
  0.00000000E+00  0.00000000E+00  0.00000000E+00
  0.00000000E+00  0.00000000E+00  0.00000000E+00
  0.00000000E+00  0.00000000E+00  0.00000000E+00
  0.00000000E+00  0.00000000E+00  0.00000000E+00
  0.00000000E+00  0.00000000E+00  0.00000000E+00
  0.00000000E+00  0.00000000E+00  0.00000000E+00
  0.00000000E+00  0.00000000E+00  0.00000000E+00
  0.00000000E+00  0.00000000E+00  0.00000000E+00
  0.00000000E+00  0.00000000E+00  0.00000000E+00
  0.00000000E+00  0.00000000E+00  0.00000000E+00
  0.00000000E+00  0.00000000E+00  0.00000000E+00
  0.00000000E+00  0.00000000E+00  0.00000000E+00
  0.00000000E+00  0.00000000E+00  0.00000000E+00
  0.00000000E+00  0.00000000E+00  0.00000000E+00
  0.00000000E+00  0.00000000E+00  0.00000000E+00
  0.00000000E+00  0.00000000E+00  0.00000000E+00
  0.00000000E+00  0.00000000E+00  0.00000000E+00
  0.00000000E+00  0.00000000E+00  0.00000000E+00
  0.00000000E+00  0.00000000E+00  0.00000000E+00
  0.00000000E+00  0.00000000E+00  0.00000000E+00
  0.00000000E+00  0.00000000E+00  0.00000000E+00
  0.00000000E+00  0.00000000E+00  0.00000000E+00
  0.00000000E+00  0.00000000E+00  0.00000000E+00
  0.00000000E+00  0.00000000E+00  0.00000000E+00
  0.00000000E+00  0.00000000E+00  0.00000000E+00
  0.00000000E+00  0.00000000E+00  0.00000000E+00
