Built with Packmol                      
   1.00000000000000     
    11.8284812099999996    0.0000000000000000    0.0000000000000000
     0.0000000000000000   11.8284812099999996    0.0000000000000000
     0.0000000000000000    0.0000000000000000   11.8284812099999996
   Ta   O 
    30    75
Direct
  0.5197063736689280  0.1464848021136769  0.7475398325684970
  0.1735559620438184  0.9911741893773095  0.2846846206838156
  0.1665833926075409  0.0348718859441992  0.6736252389094440
  0.2843808745378770  0.5508582694294120  0.9563775933803957
  0.9868915964892599  0.2621124134386532  0.3291513446078194
  0.2151407186642123  0.7603624010062531  0.7615005907642288
  0.5455159557357059  0.4056240652603956  0.0698153716665530
  0.5996262615956599  0.7024832394205361  0.1373913793273664
  0.9361653634203831  0.7171187136156124  0.9802138553572161
  0.5481342480905402  0.3837212406603829  0.8026210280147047
  0.8285738672922445  0.9634606059524135  0.7985670897579424
  0.7727619569418369  0.5034343944916618  0.2798115930998794
  0.5899495176493250  0.2613302618445923  0.3479387366858832
  0.6848141320278275  0.7664044897870899  0.3822081366691331
  0.1460324013972462  0.9716159800684585  0.0091506923591839
  0.0077248620501429  0.5308856586670149  0.7849358124330656
  0.6954257384282787  0.6147204830586691  0.6621132531235133
  0.9152383911021786  0.1138308649127710  0.0659325478762437
  0.5130146129716027  0.8095562895669812  0.8037000124654030
  0.8362475450422500  0.3431793023498542  0.6125831052937715
  0.1811393674010414  0.8220026960468516  0.4650956981349729
  0.2227602181259578  0.4075272514166284  0.2158423985292233
  0.2312953863536621  0.3394015317550928  0.4628338001964581
  0.4780363325368993  0.5575350405071055  0.3960871508973620
  0.4401277399275279  0.0983473856893303  0.1771461931460316
  0.7099043676316968  0.9592211743819077  0.1231951578019763
  0.6088574327949760  0.0026294430331148  0.5696541861716082
  0.9336022758536944  0.4797844551838991  0.0376811629497434
  0.9232569972819163  0.9547697119519771  0.5133776504857700
  0.3172253664335521  0.5750314432708730  0.6164788734833859
  0.1238923862349171  0.3366417063535996  0.1254674752643046
  0.8193579002939702  0.5451464175030203  0.9548372223243246
  0.8350318661842230  0.0164545071887007  0.6469430604580561
  0.8099960594822904  0.6413892720082089  0.3639464768759344
  0.4195331350919496  0.4701522147450183  0.5703849326530850
  0.7871051891321798  0.5548906620651957  0.1428770716207027
  0.0907893738325142  0.1363613894611588  0.3273543499722396
  0.0370081158990846  0.5722124889016548  0.9449207387454913
  0.9173488288755861  0.2802263517627994  0.5236966215479330
  0.6889694399657423  0.3939766778380017  0.0553328951856260
  0.2367103311334617  0.5142284666201281  0.0909829403740342
  0.8652205148997445  0.6386654265043512  0.8074578673161996
  0.8398849717114120  0.4976379691587544  0.6053201146984770
  0.8170258328989511  0.8426077906935785  0.8835060899330360
  0.1931227314772428  0.9307310087449352  0.8085066218415796
  0.5739354957676083  0.8449058793588895  0.4549717432764936
  0.3359449056439601  0.0704560010551879  0.0670535724937572
  0.3868335988486454  0.9093073331758978  0.7475023892843878
  0.1505169971933129  0.1981216974001732  0.6867518231497270
  0.6846347339071147  0.4229512875093632  0.7628378997616815
  0.5716478882572296  0.2534193529215050  0.9166643123795504
  0.5406158656179774  0.6348702285521927  0.7522017367831105
  0.0767200087440856  0.9497616502699737  0.5832697040897447
  0.5140694440596890  0.5612070105045580  0.0792095958107865
  0.5395343573195257  0.4024348696500815  0.3542233831756703
  0.8256025364529810  0.0346811592910698  0.1846250465445436
  0.9875050465242049  0.7660787662217940  0.1685678452419187
  0.0623664862943939  0.9192829610024211  0.3638422341932983
  0.6767500193876529  0.0766828465104345  0.7021371930966146
  0.4024085058067701  0.6809380643431145  0.6815697876623841
  0.2996552536981097  0.2003123254528286  0.5105063980503720
  0.7026887564773753  0.2794262403844680  0.6544065666316151
  0.6207465228164069  0.6151493883149050  0.2682513127666982
  0.2862806386435399  0.9157345747135797  0.3603304898116185
  0.3817806028491486  0.6517111904383271  0.4934300051277210
  0.4118217131202663  0.3049007204242978  0.1086443463770079
  0.0023327400704708  0.3942047713437476  0.7028297600315297
  0.2711561186137212  0.1405666352138868  0.0047042173338199
  0.4610427968221286  0.0554412457259034  0.5570377954102615
  0.6110857434076706  0.0720431044389627  0.1289563752643011
  0.1990423807623821  0.8994675175757100  0.1472813670394223
  0.6415550490088774  0.3938674578707718  0.2197883225704885
  0.7943816731181489  0.8663530926973390  0.4677819861717774
  0.0490886942348163  0.7118137780998103  0.7673122803996648
  0.9800213375189570  0.9668368966475236  0.7841709711692187
  0.5422159625003069  0.7677535862670665  0.0040415476329382
  0.9023943147850962  0.3914787848434015  0.2603689920252204
  0.9579326870481409  0.3658732732583541  0.9404141313155785
  0.6087365281419936  0.1079454952259146  0.4337878835080440
  0.1877246421222702  0.7114915874704639  0.5925745598162881
  0.3379071409783386  0.7059432597213285  0.8858784255461114
  0.7928584163344790  0.8567050837850013  0.2478065817753975
  0.0505596762249025  0.1083649642970860  0.9657080753648617
  0.7451363426979549  0.2792941368767134  0.4013876930427459
  0.3183371920794659  0.4459761512406543  0.3521589993423622
  0.5689092717864619  0.1941948610418053  0.2200315785501014
  0.4022182995872741  0.4565790591547297  0.9197478609164997
  0.6177938008627406  0.8519885719293900  0.2205238243179022
  0.4349749623634559  0.2788454861890597  0.7318413824154725
  0.0546087972000894  0.8139044424533511  0.9399987346788949
  0.0526872013206390  0.0137176637241634  0.1250587649479485
  0.7805796221719641  0.7143929256431486  0.5888385900712890
  0.1838874456926594  0.4667713423158618  0.5576292692892509
  0.6348124819198145  0.8719180123770808  0.7256846613271530
  0.9170862533624529  0.0758083769036289  0.4095006097329751
  0.4475126060780470  0.9820487119058747  0.2728323603329168
  0.7550489980896342  0.7513460462178768  0.0719740422075417
  0.5713944695838389  0.5772257336494012  0.5286851126731683
  0.4999472155806525  0.0034631348391978  0.7932606021915032
  0.2006342713068757  0.5457738949835227  0.7803701560879818
  0.9717474059463284  0.2170556633262582  0.1728267755386022
  0.1252185754402549  0.3694674659397212  0.3437326516686326
  0.7901131154662994  0.0175452230227589  0.9634461293543848
  0.1483550159918751  0.7035237615292553  0.3755740170141209
  0.4845050096634936  0.6759584240422321  0.2908862122329237
 
  0.14123200E-03  0.61010674E-03 -0.56306310E-02
  0.29670801E-03  0.42701940E-02 -0.69328030E-02
  0.12744965E-02  0.23741133E-02 -0.30591030E-03
 -0.85246153E-02 -0.82809590E-02 -0.80689561E-02
  0.52517817E-02 -0.46608820E-02  0.19500226E-02
  0.39393838E-02 -0.78201487E-02 -0.32560732E-02
 -0.30781531E-02 -0.20245704E-02  0.35343388E-02
  0.39154942E-02  0.77126412E-02 -0.77257187E-04
 -0.35805383E-02 -0.82936325E-03 -0.87699881E-02
 -0.26420258E-02  0.12843833E-02  0.26061764E-02
 -0.30639904E-02 -0.12006507E-02  0.31117748E-02
  0.22239298E-02  0.49072467E-02  0.77911292E-02
  0.19935550E-02 -0.29351903E-02  0.11076052E-01
 -0.21233505E-02  0.87078806E-03 -0.47072874E-02
 -0.35591923E-02 -0.51398142E-02  0.19194202E-02
 -0.83052494E-02  0.11253509E-02 -0.39191606E-02
  0.17754283E-02  0.70014654E-02  0.22602096E-02
  0.35143764E-02  0.36238830E-02 -0.21720089E-02
  0.10428653E-02  0.12097790E-02  0.53162170E-02
  0.89218193E-03  0.68430020E-03 -0.36358377E-02
 -0.22858153E-02 -0.63859636E-02 -0.18859617E-02
  0.16018059E-02 -0.23783702E-03 -0.46986418E-03
 -0.50773682E-02  0.55939197E-02 -0.69023293E-02
  0.75230594E-02  0.21251247E-02  0.19555280E-02
  0.74954216E-03 -0.18248279E-02  0.29435756E-02
 -0.34074969E-02 -0.13524445E-03 -0.10779219E-01
 -0.13442371E-02  0.13880238E-02  0.18987041E-02
  0.48744914E-02  0.45295769E-02  0.20891467E-02
 -0.73277359E-03 -0.84111828E-03 -0.42741369E-02
 -0.76618260E-03 -0.36648905E-04 -0.18873601E-02
 -0.15937756E-01 -0.25170759E-01 -0.12643963E-02
 -0.19376213E-01 -0.55452455E-02  0.10264811E-01
  0.20312950E-01  0.30880351E-01 -0.40084444E-02
 -0.82474161E-02 -0.80728344E-02  0.96047132E-02
  0.65753072E-02 -0.91384654E-03  0.13696777E-01
 -0.32764169E-02 -0.15063282E-01  0.20475525E-01
 -0.54484762E-02 -0.19385532E-01 -0.15270111E-01
  0.14908007E-01  0.17256384E-02 -0.68253038E-02
  0.12731028E-01  0.47607077E-01 -0.10976527E-01
 -0.49217245E-02  0.23234497E-01  0.12741070E-01
 -0.35351401E-01 -0.31814247E-03  0.23408562E-01
 -0.67514345E-02 -0.58218082E-02 -0.13312390E-01
 -0.24230575E-01 -0.16511520E-01 -0.28704556E-02
  0.23803326E-01  0.85130660E-02 -0.11453574E-01
 -0.48396677E-02 -0.28360992E-01  0.90046561E-02
  0.17416842E-01  0.34988007E-02 -0.50899773E-02
 -0.19493960E-01 -0.22108095E-01  0.12963678E-01
  0.21981950E-01 -0.74178381E-02 -0.24940922E-01
 -0.12402293E-01 -0.14925342E-01 -0.13137819E-01
 -0.10047205E-01  0.29022137E-01 -0.10726882E-01
  0.68937295E-02 -0.20096446E-01  0.52481221E-02
 -0.64582347E-02 -0.96813753E-02  0.18348289E-01
  0.12056969E-01  0.13515790E-02  0.14343318E-01
  0.34110236E-01 -0.31026695E-01 -0.14377837E-01
  0.43542339E-02  0.22410807E-02 -0.34406874E-02
 -0.92688983E-02  0.13416445E-01  0.94564184E-02
  0.12000256E-01 -0.24271441E-01 -0.39037029E-01
 -0.12581143E-01 -0.11127330E-01 -0.18852272E-01
  0.31256927E-02 -0.71411775E-02  0.39808884E-01
  0.39361078E-01 -0.44731482E-02 -0.63618795E-02
  0.41293346E-02  0.22195559E-01  0.92047150E-02
 -0.10151582E-01  0.17422424E-01  0.82316861E-02
 -0.14289631E-01  0.12171562E-01 -0.24889525E-01
  0.56525708E-02  0.74152999E-02  0.29673535E-01
 -0.13178489E-01  0.29668539E-01 -0.86161458E-02
  0.71808630E-02 -0.95510956E-02  0.31561859E-03
 -0.45847657E-02  0.16690177E-02  0.36124190E-01
 -0.53137346E-02 -0.44788189E-02  0.45608343E-02
  0.14919671E-01  0.11855740E-01  0.17820972E-01
  0.13102746E-01  0.49135711E-02 -0.11846645E-01
  0.97465930E-02  0.11198796E-02  0.21339868E-01
  0.77025296E-02  0.52132882E-04  0.20662974E-01
  0.31527621E-01  0.70657411E-02 -0.23886594E-02
  0.44054554E-02 -0.15451801E-01  0.10427418E-01
  0.26022111E-01 -0.44247225E-01  0.73866012E-02
 -0.14014330E-01  0.44490648E-02 -0.41719794E-02
  0.37454574E-02 -0.82866866E-02  0.21121630E-01
  0.14362203E-01  0.36473520E-01  0.32946582E-01
 -0.85392525E-02  0.19346370E-01  0.20964950E-01
  0.62695103E-04  0.11293550E-01 -0.52182355E-02
 -0.23880767E-01 -0.94447899E-02  0.11870014E-01
  0.10267087E-01  0.13557014E-01  0.93386267E-02
 -0.29830927E-02 -0.11935874E-01  0.18556656E-01
 -0.23110433E-01 -0.61926908E-02 -0.77364250E-02
  0.14405449E-01 -0.47886446E-02 -0.97080784E-02
  0.32254748E-01  0.17725875E-01 -0.23766125E-02
 -0.70853932E-02  0.15191628E-01  0.11049202E-01
 -0.15134060E-01 -0.24611166E-01 -0.35705959E-01
  0.11782143E-01 -0.17889873E-01  0.12395271E-01
 -0.40195407E-02  0.34689193E-01  0.53187326E-02
 -0.28750426E-01  0.21632805E-01  0.41835499E-02
  0.34610076E-01  0.59348765E-02 -0.23133701E-01
  0.49647488E-02  0.35176684E-02 -0.77242177E-03
 -0.19989867E-01 -0.61233995E-02  0.31834447E-02
 -0.53935525E-02 -0.49594113E-02  0.29168034E-01
  0.21500901E-02 -0.99925271E-02  0.18112775E-02
 -0.12910509E-01 -0.53249411E-02 -0.25422980E-02
 -0.12275003E-01 -0.11042362E-01  0.79516400E-02
 -0.79278848E-02 -0.19686522E-01  0.22626100E-01
 -0.24249346E-01 -0.10466639E-01 -0.15397644E-02
  0.32202627E-01 -0.42525595E-02  0.24955291E-01
  0.18522793E-02 -0.19893567E-01  0.37638234E-01
  0.92267061E-02  0.82240907E-03 -0.34293105E-02
 -0.60530585E-02 -0.61427460E-02 -0.96850401E-03
  0.21160742E-01 -0.81640450E-02 -0.79542565E-02
 
           1
   2.00000000000000     
  0.10000000E+01  0.00000000E+00  0.00000000E+00  0.00000000E+00
  0.51973025E+00  0.14658796E+00  0.74658779E+00
  0.17360613E+00  0.99189621E+00  0.28351240E+00
  0.16679889E+00  0.35273309E-01  0.67357351E+00
  0.28293950E+00  0.54945810E+00  0.95501327E+00
  0.98777959E+00  0.26132434E+00  0.32948106E+00
  0.21580680E+00  0.75904014E+00  0.76095004E+00
  0.54499549E+00  0.40528174E+00  0.70412970E-01
  0.60028831E+00  0.70378732E+00  0.13737832E+00
  0.93555995E+00  0.71697848E+00  0.97873100E+00
  0.54768753E+00  0.38393841E+00  0.80306169E+00
  0.82805580E+00  0.96325760E+00  0.79909324E+00
  0.77313799E+00  0.50426413E+00  0.28112894E+00
  0.59028659E+00  0.26083397E+00  0.34981151E+00
  0.68445511E+00  0.76655173E+00  0.38141221E+00
  0.14543060E+00  0.97074692E+00  0.94752345E-02
  0.63205821E-02  0.53107594E+00  0.78427315E+00
  0.69572593E+00  0.61590431E+00  0.66249542E+00
  0.91583261E+00  0.11444360E+00  0.65565297E-01
  0.51319094E+00  0.80976084E+00  0.80459890E+00
  0.83639840E+00  0.34329501E+00  0.61196835E+00
  0.18075287E+00  0.82092294E+00  0.46477681E+00
  0.22303106E+00  0.40748704E+00  0.21576295E+00
  0.23043689E+00  0.34034737E+00  0.46166673E+00
  0.47930836E+00  0.55789436E+00  0.39641780E+00
  0.44025448E+00  0.98038838E-01  0.17764390E+00
  0.70932822E+00  0.95919831E+00  0.12137257E+00
  0.60863014E+00  0.28641348E-02  0.56997523E+00
  0.93442647E+00  0.48055033E+00  0.38034403E-01
  0.92313310E+00  0.95462749E+00  0.51265496E+00
  0.31709582E+00  0.57502525E+00  0.61615975E+00
  0.12119758E+00  0.33238575E+00  0.12525369E+00
  0.81608170E+00  0.54420881E+00  0.95657283E+00
  0.83846645E+00  0.21675862E-01  0.64626530E+00
  0.80860156E+00  0.64002429E+00  0.36557047E+00
  0.42064491E+00  0.46999770E+00  0.57270083E+00
  0.78655120E+00  0.55234371E+00  0.14633914E+00
  0.89868127E-01  0.13308362E+00  0.32477243E+00
  0.39528813E-01  0.57250427E+00  0.94376669E+00
  0.91950143E+00  0.28827592E+00  0.52184067E+00
  0.68813726E+00  0.39790525E+00  0.57487199E-01
  0.23073300E+00  0.51417467E+00  0.94940940E-01
  0.86407896E+00  0.63768106E+00  0.80520696E+00
  0.83578798E+00  0.49484614E+00  0.60483477E+00
  0.82105058E+00  0.84404721E+00  0.88156948E+00
  0.19230442E+00  0.92593564E+00  0.81002916E+00
  0.57688039E+00  0.84549747E+00  0.45411111E+00
  0.33264880E+00  0.66717889E-01  0.69245515E-01
  0.39055038E+00  0.90805310E+00  0.74328529E+00
  0.14841998E+00  0.19559807E+00  0.68453044E+00
  0.68293592E+00  0.42785845E+00  0.76102416E+00
  0.57281350E+00  0.25002138E+00  0.91755168E+00
  0.53952389E+00  0.63323327E+00  0.75530413E+00
  0.78758642E-01  0.94999018E+00  0.58569492E+00
  0.51983692E+00  0.55596091E+00  0.76778542E-01
  0.54027059E+00  0.40281380E+00  0.35364162E+00
  0.82403532E+00  0.36949658E-01  0.18622397E+00
  0.98953409E+00  0.76197487E+00  0.16196733E+00
  0.60239224E-01  0.91740151E+00  0.36065463E+00
  0.67727852E+00  0.75475392E-01  0.70886822E+00
  0.40906381E+00  0.68018173E+00  0.68049410E+00
  0.30035346E+00  0.20406523E+00  0.51206276E+00
  0.70097229E+00  0.28237208E+00  0.65579841E+00
  0.61833038E+00  0.61720740E+00  0.26404291E+00
  0.28723639E+00  0.91698838E+00  0.36534779E+00
  0.37955234E+00  0.65672765E+00  0.49197316E+00
  0.41303588E+00  0.30328579E+00  0.10869771E+00
  0.15575322E-02  0.39448697E+00  0.70893776E+00
  0.27025765E+00  0.13980934E+00  0.54753788E-02
  0.46356547E+00  0.57445855E-01  0.56005103E+00
  0.61330120E+00  0.72873908E-01  0.12695330E+00
  0.20069037E+00  0.89965687E+00  0.15088958E+00
  0.64285742E+00  0.39387627E+00  0.22328209E+00
  0.79971247E+00  0.86754779E+00  0.46737810E+00
  0.49833584E-01  0.70920113E+00  0.76907538E+00
  0.98442124E+00  0.95935542E+00  0.78541992E+00
  0.53984637E+00  0.76850585E+00  0.33361351E-02
  0.90302761E+00  0.39007764E+00  0.26394031E+00
  0.96036110E+00  0.37204034E+00  0.94598485E+00
  0.60729268E+00  0.11121665E+00  0.43733271E+00
  0.18773524E+00  0.71340114E+00  0.59169224E+00
  0.33386930E+00  0.70434630E+00  0.88788545E+00
  0.79459441E+00  0.85899735E+00  0.24938559E+00
  0.50055285E-01  0.10634681E+00  0.96884570E+00
  0.74122875E+00  0.27824706E+00  0.40007959E+00
  0.32077291E+00  0.44516647E+00  0.35051752E+00
  0.57436301E+00  0.19719201E+00  0.21962973E+00
  0.40102028E+00  0.45914771E+00  0.92161610E+00
  0.61523488E+00  0.84782723E+00  0.21448654E+00
  0.43696713E+00  0.27582061E+00  0.73393722E+00
  0.53929160E-01  0.81976981E+00  0.94089804E+00
  0.47825981E-01  0.17375412E-01  0.12576613E+00
  0.78643161E+00  0.71539641E+00  0.58492706E+00
  0.18472690E+00  0.46736612E+00  0.55749867E+00
  0.63143253E+00  0.87088265E+00  0.72622293E+00
  0.91617429E+00  0.74969823E-01  0.41443244E+00
  0.44787615E+00  0.98035914E+00  0.27313862E+00
  0.75286605E+00  0.75044569E+00  0.71544182E-01
  0.56931897E+00  0.57535865E+00  0.53002960E+00
  0.49860674E+00  0.13447041E-03  0.79708630E+00
  0.19653411E+00  0.54400416E+00  0.78010981E+00
  0.97719234E+00  0.21633663E+00  0.17704630E+00
  0.12553177E+00  0.36610379E+00  0.35009665E+00
  0.79167320E+00  0.17684279E-01  0.96286629E+00
  0.14733154E+00  0.70248513E+00  0.37541026E+00
  0.48808294E+00  0.67457802E+00  0.28954128E+00
 -0.58760114E-05  0.11365648E-03 -0.95316052E-03
  0.63617394E-04  0.71016207E-03 -0.11447687E-02
  0.20301967E-03  0.35622437E-03 -0.95837854E-04
 -0.14652101E-02 -0.14236601E-02 -0.12903417E-02
  0.90858834E-03 -0.77687259E-03  0.32243568E-03
  0.67669830E-03 -0.13155664E-02 -0.55574475E-03
 -0.47707881E-03 -0.33381175E-03  0.58697710E-03
  0.64669760E-03  0.12793561E-02  0.23309512E-04
 -0.58024670E-03 -0.17580630E-03 -0.15005860E-02
 -0.42552289E-03  0.22663879E-03  0.40851941E-03
 -0.51964437E-03 -0.22179362E-03  0.51013075E-03
  0.38441858E-03  0.83366631E-03  0.13028137E-02
  0.27856870E-03 -0.47770013E-03  0.18153190E-02
 -0.39364651E-03  0.12995464E-03 -0.76467026E-03
 -0.60585267E-03 -0.87418944E-03  0.34756510E-03
 -0.13920282E-02  0.16966803E-03 -0.64336247E-03
  0.29714026E-03  0.12055079E-02  0.39529564E-03
  0.56891662E-03  0.62469254E-03 -0.36630189E-03
  0.19806774E-03  0.21509896E-03  0.90360162E-03
  0.20052554E-03  0.66181156E-04 -0.70440240E-03
 -0.38547128E-03 -0.10465910E-02 -0.28999384E-03
  0.25928477E-03 -0.25792774E-04 -0.53477246E-04
 -0.89309242E-03  0.93504340E-03 -0.12074963E-02
  0.12807472E-02  0.35495919E-03  0.31705057E-03
  0.86187016E-04 -0.31425759E-03  0.47970061E-03
 -0.58750350E-03  0.35744455E-04 -0.18179029E-02
 -0.21256110E-03  0.22793940E-03  0.36771803E-03
  0.85605242E-03  0.78005386E-03  0.35079833E-03
 -0.81170664E-04 -0.17335302E-03 -0.69329771E-03
 -0.10417565E-03  0.20590872E-04 -0.30082194E-03
 -0.27316627E-02 -0.43007754E-02 -0.26700257E-03
 -0.34914506E-02 -0.85747231E-03  0.15923633E-02
  0.31682413E-02  0.53689543E-02 -0.65884307E-04
 -0.12654393E-02 -0.12178020E-02  0.16009096E-02
  0.11505447E-02  0.13173578E-03  0.22410279E-02
 -0.76340371E-03 -0.25626037E-02  0.35000726E-02
 -0.11130390E-02 -0.33508713E-02 -0.25616213E-02
  0.23890929E-02  0.19291452E-03 -0.13469589E-02
  0.11954186E-02  0.87005489E-02 -0.70605488E-03
 -0.12738077E-02  0.40472850E-02  0.25048163E-02
 -0.59357676E-02 -0.13495989E-03  0.36530807E-02
 -0.13348115E-02 -0.77153039E-03 -0.20656500E-02
 -0.38367796E-02 -0.31093393E-02 -0.43999995E-03
  0.39156196E-02  0.19518555E-02 -0.20196539E-02
 -0.79166602E-03 -0.48227674E-02  0.15641884E-02
  0.29060206E-02  0.45093645E-03 -0.10908390E-02
 -0.32452362E-02 -0.34936093E-02  0.22179092E-02
  0.38410981E-02 -0.69707591E-03 -0.41451485E-02
 -0.21138006E-02 -0.19372203E-02 -0.21710027E-02
 -0.17835172E-02  0.45357674E-02 -0.18637234E-02
  0.12425984E-02 -0.35336825E-02  0.12737052E-02
 -0.17089452E-02 -0.17578335E-02  0.28998451E-02
  0.21100335E-02  0.38393403E-03  0.26459446E-02
  0.57537866E-02 -0.52842885E-02 -0.24874679E-02
  0.11906286E-02 -0.93763443E-04 -0.93878163E-03
 -0.19500757E-02  0.18720880E-02  0.16599908E-02
  0.21614077E-02 -0.38798588E-02 -0.61108788E-02
 -0.21327628E-02 -0.17148680E-02 -0.34050834E-02
  0.91727216E-03 -0.13400089E-02  0.67379208E-02
  0.68971329E-02 -0.11949370E-02 -0.13812984E-02
  0.89733600E-03  0.34621853E-02  0.16935270E-02
 -0.15531377E-02  0.31899888E-02  0.14851541E-02
 -0.32252609E-02  0.25102761E-02 -0.45025452E-02
  0.10934770E-02  0.13612701E-02  0.47295819E-02
 -0.20699857E-02  0.49382524E-02 -0.10586830E-02
  0.12151666E-02 -0.16734381E-02 -0.68007162E-04
 -0.63929512E-03  0.13920892E-03  0.59531178E-02
 -0.57580171E-03 -0.67877199E-03  0.10149176E-02
  0.23118156E-02  0.20830490E-02  0.26002331E-02
  0.23964459E-02  0.11629556E-02 -0.16596826E-02
  0.15478960E-02  0.14372169E-03  0.37011466E-02
  0.11344050E-02 -0.48035482E-04  0.35011892E-02
  0.51913088E-02  0.10775880E-02 -0.37520557E-03
  0.36973243E-03 -0.25335743E-02  0.18706826E-02
  0.43788329E-02 -0.75599780E-02  0.11815750E-02
 -0.22586712E-02  0.58489572E-03 -0.38899468E-03
  0.57128008E-03 -0.14771918E-02  0.35079711E-02
  0.24508452E-02  0.61960186E-02  0.55440280E-02
 -0.15430832E-02  0.33541598E-02  0.33642051E-02
 -0.67632650E-04  0.17549764E-02 -0.10749599E-02
 -0.37695489E-02 -0.15451167E-02  0.19402053E-02
  0.18258975E-02  0.23765893E-02  0.13784524E-02
 -0.33793383E-03 -0.19409496E-02  0.31952312E-02
 -0.38144582E-02 -0.11809951E-02 -0.11649350E-02
  0.23672500E-02 -0.78151251E-03 -0.17476950E-02
  0.56869399E-02  0.28028810E-02 -0.29816918E-03
 -0.12592668E-02  0.25918944E-02  0.19448318E-02
 -0.23100000E-02 -0.39672110E-02 -0.60173857E-02
  0.19899171E-02 -0.31492435E-02  0.21323874E-02
 -0.79834966E-03  0.56740239E-02  0.68042521E-03
 -0.45303045E-02  0.36009669E-02  0.39394906E-03
  0.60417313E-02  0.10693446E-02 -0.40510007E-02
  0.72701504E-03  0.78556248E-03 -0.32612762E-04
 -0.33345446E-02 -0.86830578E-03  0.58150744E-03
 -0.87531572E-03 -0.69730698E-03  0.46428473E-02
  0.43621394E-03 -0.18542067E-02  0.45968988E-03
 -0.20972693E-02 -0.90281344E-03 -0.42001648E-03
 -0.25327234E-02 -0.20001476E-02  0.13465525E-02
 -0.14419628E-02 -0.35627827E-02  0.34288137E-02
 -0.41187463E-02 -0.18459145E-02 -0.43175361E-03
  0.56440868E-02 -0.63946842E-03  0.42395198E-02
  0.65978417E-03 -0.32244709E-02  0.63649323E-02
  0.14638638E-02 -0.13800254E-03 -0.75936687E-03
 -0.11034266E-02 -0.12905683E-02 -0.32632493E-03
  0.42922607E-02 -0.16118728E-02 -0.14492163E-02
  0.00000000E+00  0.00000000E+00  0.00000000E+00
  0.00000000E+00  0.00000000E+00  0.00000000E+00
  0.00000000E+00  0.00000000E+00  0.00000000E+00
  0.00000000E+00  0.00000000E+00  0.00000000E+00
  0.00000000E+00  0.00000000E+00  0.00000000E+00
  0.00000000E+00  0.00000000E+00  0.00000000E+00
  0.00000000E+00  0.00000000E+00  0.00000000E+00
  0.00000000E+00  0.00000000E+00  0.00000000E+00
  0.00000000E+00  0.00000000E+00  0.00000000E+00
  0.00000000E+00  0.00000000E+00  0.00000000E+00
  0.00000000E+00  0.00000000E+00  0.00000000E+00
  0.00000000E+00  0.00000000E+00  0.00000000E+00
  0.00000000E+00  0.00000000E+00  0.00000000E+00
  0.00000000E+00  0.00000000E+00  0.00000000E+00
  0.00000000E+00  0.00000000E+00  0.00000000E+00
  0.00000000E+00  0.00000000E+00  0.00000000E+00
  0.00000000E+00  0.00000000E+00  0.00000000E+00
  0.00000000E+00  0.00000000E+00  0.00000000E+00
  0.00000000E+00  0.00000000E+00  0.00000000E+00
  0.00000000E+00  0.00000000E+00  0.00000000E+00
  0.00000000E+00  0.00000000E+00  0.00000000E+00
  0.00000000E+00  0.00000000E+00  0.00000000E+00
  0.00000000E+00  0.00000000E+00  0.00000000E+00
  0.00000000E+00  0.00000000E+00  0.00000000E+00
  0.00000000E+00  0.00000000E+00  0.00000000E+00
  0.00000000E+00  0.00000000E+00  0.00000000E+00
  0.00000000E+00  0.00000000E+00  0.00000000E+00
  0.00000000E+00  0.00000000E+00  0.00000000E+00
  0.00000000E+00  0.00000000E+00  0.00000000E+00
  0.00000000E+00  0.00000000E+00  0.00000000E+00
  0.00000000E+00  0.00000000E+00  0.00000000E+00
  0.00000000E+00  0.00000000E+00  0.00000000E+00
  0.00000000E+00  0.00000000E+00  0.00000000E+00
  0.00000000E+00  0.00000000E+00  0.00000000E+00
  0.00000000E+00  0.00000000E+00  0.00000000E+00
  0.00000000E+00  0.00000000E+00  0.00000000E+00
  0.00000000E+00  0.00000000E+00  0.00000000E+00
  0.00000000E+00  0.00000000E+00  0.00000000E+00
  0.00000000E+00  0.00000000E+00  0.00000000E+00
  0.00000000E+00  0.00000000E+00  0.00000000E+00
  0.00000000E+00  0.00000000E+00  0.00000000E+00
  0.00000000E+00  0.00000000E+00  0.00000000E+00
  0.00000000E+00  0.00000000E+00  0.00000000E+00
  0.00000000E+00  0.00000000E+00  0.00000000E+00
  0.00000000E+00  0.00000000E+00  0.00000000E+00
  0.00000000E+00  0.00000000E+00  0.00000000E+00
  0.00000000E+00  0.00000000E+00  0.00000000E+00
  0.00000000E+00  0.00000000E+00  0.00000000E+00
  0.00000000E+00  0.00000000E+00  0.00000000E+00
  0.00000000E+00  0.00000000E+00  0.00000000E+00
  0.00000000E+00  0.00000000E+00  0.00000000E+00
  0.00000000E+00  0.00000000E+00  0.00000000E+00
  0.00000000E+00  0.00000000E+00  0.00000000E+00
  0.00000000E+00  0.00000000E+00  0.00000000E+00
  0.00000000E+00  0.00000000E+00  0.00000000E+00
  0.00000000E+00  0.00000000E+00  0.00000000E+00
  0.00000000E+00  0.00000000E+00  0.00000000E+00
  0.00000000E+00  0.00000000E+00  0.00000000E+00
  0.00000000E+00  0.00000000E+00  0.00000000E+00
  0.00000000E+00  0.00000000E+00  0.00000000E+00
  0.00000000E+00  0.00000000E+00  0.00000000E+00
  0.00000000E+00  0.00000000E+00  0.00000000E+00
  0.00000000E+00  0.00000000E+00  0.00000000E+00
  0.00000000E+00  0.00000000E+00  0.00000000E+00
  0.00000000E+00  0.00000000E+00  0.00000000E+00
  0.00000000E+00  0.00000000E+00  0.00000000E+00
  0.00000000E+00  0.00000000E+00  0.00000000E+00
  0.00000000E+00  0.00000000E+00  0.00000000E+00
  0.00000000E+00  0.00000000E+00  0.00000000E+00
  0.00000000E+00  0.00000000E+00  0.00000000E+00
  0.00000000E+00  0.00000000E+00  0.00000000E+00
  0.00000000E+00  0.00000000E+00  0.00000000E+00
  0.00000000E+00  0.00000000E+00  0.00000000E+00
  0.00000000E+00  0.00000000E+00  0.00000000E+00
  0.00000000E+00  0.00000000E+00  0.00000000E+00
  0.00000000E+00  0.00000000E+00  0.00000000E+00
  0.00000000E+00  0.00000000E+00  0.00000000E+00
  0.00000000E+00  0.00000000E+00  0.00000000E+00
  0.00000000E+00  0.00000000E+00  0.00000000E+00
  0.00000000E+00  0.00000000E+00  0.00000000E+00
  0.00000000E+00  0.00000000E+00  0.00000000E+00
  0.00000000E+00  0.00000000E+00  0.00000000E+00
  0.00000000E+00  0.00000000E+00  0.00000000E+00
  0.00000000E+00  0.00000000E+00  0.00000000E+00
  0.00000000E+00  0.00000000E+00  0.00000000E+00
  0.00000000E+00  0.00000000E+00  0.00000000E+00
  0.00000000E+00  0.00000000E+00  0.00000000E+00
  0.00000000E+00  0.00000000E+00  0.00000000E+00
  0.00000000E+00  0.00000000E+00  0.00000000E+00
  0.00000000E+00  0.00000000E+00  0.00000000E+00
  0.00000000E+00  0.00000000E+00  0.00000000E+00
  0.00000000E+00  0.00000000E+00  0.00000000E+00
  0.00000000E+00  0.00000000E+00  0.00000000E+00
  0.00000000E+00  0.00000000E+00  0.00000000E+00
  0.00000000E+00  0.00000000E+00  0.00000000E+00
  0.00000000E+00  0.00000000E+00  0.00000000E+00
  0.00000000E+00  0.00000000E+00  0.00000000E+00
  0.00000000E+00  0.00000000E+00  0.00000000E+00
  0.00000000E+00  0.00000000E+00  0.00000000E+00
  0.00000000E+00  0.00000000E+00  0.00000000E+00
  0.00000000E+00  0.00000000E+00  0.00000000E+00
  0.00000000E+00  0.00000000E+00  0.00000000E+00
  0.00000000E+00  0.00000000E+00  0.00000000E+00
  0.00000000E+00  0.00000000E+00  0.00000000E+00
  0.00000000E+00  0.00000000E+00  0.00000000E+00
