Built with Packmol                      
   1.00000000000000     
    11.8284812099999996    0.0000000000000000    0.0000000000000000
     0.0000000000000000   11.8284812099999996    0.0000000000000000
     0.0000000000000000    0.0000000000000000   11.8284812099999996
   Ta   O 
    30    75
Direct
  0.4648509686937676  0.0517740637326690  0.7381964407171397
  0.3013605778004497  0.8952242318666088  0.1989995147008967
  0.1094772364117246  0.0019443851438813  0.6988631243749177
  0.2272272106466723  0.3624016209584422  0.9057477259666499
  0.9868462338053835  0.2673711238132206  0.6474453546674755
  0.2705584441378496  0.6539384531608747  0.8043209042196766
  0.5661881351256827  0.5859034601827299  0.1874502137810401
  0.4876083878985620  0.7219705247405617  0.9871802651521380
  0.7764296777792430  0.8768437717232455  0.9657840162139961
  0.4489623749709293  0.1185479324970794  0.0056366079770509
  0.7475655241263242  0.0582888438356642  0.7858572449364365
  0.8495013545145055  0.6989354762028109  0.1915397506304901
  0.4569182814177208  0.2535565756228094  0.5562165182309420
  0.9476410202074308  0.9180004620167476  0.3787641734527710
  0.1169275685819700  0.7896012816097334  0.9596772021309938
  0.7453643037155081  0.5560260708091926  0.8647042488438734
  0.7043006734777707  0.6125098348616435  0.4143176263314771
  0.1032932653856348  0.1139882345118659  0.0636886207520678
  0.5598292738189823  0.7200647158447008  0.6645180703496109
  0.6431883203114005  0.4481337026028447  0.6771186193549600
  0.3371363916948556  0.7682271818641899  0.4295138854371126
  0.3744331146497373  0.3682300784610311  0.2736364410652132
  0.9663123556248446  0.4801587446177062  0.4392494593464746
  0.1523774133416323  0.5917024595876522  0.2573293245390700
  0.9173397889093061  0.2317275687464115  0.2914489577826734
  0.7363258448096694  0.2249015507782631  0.0839288263098395
  0.6878339155373556  0.0178477047579371  0.4504408314386730
  0.0206505009407814  0.5809392996799815  0.9679886923580855
  0.0529736711083448  0.7142129063762886  0.5619427982628539
  0.2375287374887456  0.4122241657067669  0.6113906310564116
  0.5845116225418920  0.0995259038236781  0.0786504283564937
  0.5689128233302982  0.6408134967600108  0.8665481022525475
  0.8514933128683827  0.1537319992930842  0.6661949110212140
  0.9824495841166678  0.7667307467109963  0.2879934410204067
  0.3511769726223802  0.4348158565571111  0.5384195184497902
  0.0534732526384338  0.7323594552265941  0.0762754919204236
  0.2784594880751993  0.9771071350747393  0.8169460914737304
  0.0985668104165246  0.4374776704586212  0.9152532365429037
  0.9004614400513292  0.3826852014960371  0.5718442427977298
  0.6586781875413812  0.5871166539505952  0.0578609151005538
  0.2439767349671332  0.4387766725637025  0.2131085206846836
  0.7067784496303046  0.7156555655219947  0.5532039026896737
  0.6956131111718582  0.4827879409091844  0.5107539786948510
  0.7500502489050197  0.0904643505501982  0.9379618853254953
  0.1548673308755081  0.7572915603319361  0.7778787418068643
  0.7165383704307324  0.7552320725553796  0.2765979165875896
  0.5215942096268468  0.0611553872550421  0.4889306719903818
  0.4512869555540905  0.7096350314351039  0.5499718979912904
  0.3823807334965602  0.9585865596014382  0.6156212853252589
  0.6175929389071548  0.0823637011974338  0.7201466263382937
  0.7754933695704822  0.9582576226640847  0.5485308023263775
  0.7699551941184273  0.7208572186421213  0.9343004080965346
  0.7913341618409592  0.9134099781349684  0.7763967850132623
  0.3951454979544688  0.7365277512104238  0.7838289676708999
  0.4485753210929392  0.3257367826932251  0.4057273692322377
  0.8320512419369269  0.2853219121109078  0.9768721366908454
  0.1404327535447310  0.2320360000330701  0.9685147576784753
  0.1761629062561709  0.8211316630761832  0.4748853381737147
  0.7937932541546107  0.9145385377637737  0.3422949270200125
  0.3003229615471905  0.3723869248291032  0.7353069017591216
  0.0774420135792844  0.4514104282461538  0.3189817276875085
  0.5202896026291183  0.5250353540530294  0.7045887788167121
  0.4314732006334088  0.6037251882619552  0.0919039507602963
  0.1039821250984019  0.1576509461555957  0.6520431472930751
  0.2701975825821064  0.6073229811691343  0.3727051396304313
  0.5876401082935473  0.3109723296411943  0.6003012297253700
  0.6947196096802714  0.3977445423293288  0.8127270176081801
  0.9909834159548322  0.7266061746114102  0.9017915239643339
  0.5587594257006584  0.8544842993028764  0.7287186906324890
  0.7753273659658634  0.3106312546808696  0.2105950195770005
  0.2045567435616393  0.7702528593322312  0.2904793543849619
  0.6812028200486686  0.5445507717371277  0.2753489456675653
  0.9500951436652937  0.8440565626745778  0.5081788529770912
  0.7174243395624936  0.5967057920570054  0.7054502089870720
  0.9984350014565287  0.8950948908279545  0.6689030636629523
  0.4109884590821594  0.8855937142611325  0.0881743193242340
  0.8539880957579276  0.6136417527033706  0.3762802551619585
  0.8832356133365767  0.4910792816032204  0.9022624288401415
  0.3824794618594599  0.1615107408427960  0.6501186737169887
  0.2404123625176965  0.5421121113610432  0.6816719499777851
  0.2907243509987384  0.7019779232181714  0.9856060405378931
  0.9560811692813757  0.1133834902097655  0.3899256935143158
  0.0365732071192699  0.2096801087873162  0.1642001540204400
  0.8725213843773214  0.4105632616947456  0.3388182138888228
  0.8564544500346312  0.5874870520147785  0.0728465595141395
  0.7448926731201689  0.1486397447495049  0.4085515741736936
  0.2926425236560177  0.5180762728098390  0.8855840004412751
  0.6164582310567125  0.8215875034314243  0.9740013950432943
  0.4285821744412663  0.9901646275046349  0.8889910625133957
  0.9757011926788620  0.9522853654645895  0.0323753860479820
  0.2205014830863340  0.8805364108374597  0.0595119262516058
  0.9711754936082874  0.6029659481020702  0.6000005305678139
  0.0905298019552922  0.5980003983846327  0.4323162538122778
  0.3942920036303725  0.8558668391868303  0.2809260088525262
  0.2202060056711084  0.0739651674652911  0.1474641522898180
  0.3867789136864246  0.2211349380753106  0.2075754863622589
  0.7968344840030092  0.8430831924686452  0.1186361051113598
  0.5519549343135070  0.6296293908316657  0.3552711652277195
  0.5042716448190356  0.1964529344609888  0.8908266853113647
  0.3413466025188995  0.2635531786737436  0.9848730169355917
  0.1167905662024175  0.3345338098942169  0.5182950666872866
  0.0380908112796196  0.3379441726989904  0.7657545813330171
  0.0878904997468955  0.0237661333021408  0.9078827703009067
  0.1264319730670038  0.5623063165164779  0.0992382236722098
  0.5317955234617074  0.4311150705240405  0.1807345237613676
 
 -0.39560733E-02 -0.10344949E-02  0.40600274E-02
 -0.57184917E-02 -0.33443738E-02 -0.31577173E-03
 -0.38791817E-02  0.16004749E-02 -0.34404703E-03
 -0.97547512E-03  0.76452007E-02 -0.28690308E-02
  0.82481759E-02  0.28935568E-02  0.41192842E-02
 -0.32950043E-02 -0.65802700E-02 -0.23612832E-02
 -0.24623700E-02 -0.83339465E-02 -0.33996625E-02
  0.35179974E-02 -0.35750808E-02 -0.91312145E-02
 -0.28451905E-02 -0.23902925E-02 -0.14661806E-02
 -0.18073631E-02 -0.73930511E-02  0.22002359E-02
  0.20653617E-02  0.56359896E-02  0.25649555E-02
 -0.89032079E-03  0.67540738E-02  0.39368103E-02
 -0.32213122E-02 -0.99532912E-02 -0.56018637E-02
  0.57804943E-02  0.37568476E-02  0.20450770E-02
  0.55373461E-02  0.74425612E-02  0.13465611E-02
  0.16681789E-03 -0.59853061E-02  0.76715685E-03
 -0.19670798E-02  0.51612244E-03  0.17821303E-02
 -0.63261411E-02  0.14077880E-02 -0.56661111E-02
 -0.53011766E-02 -0.70348665E-02  0.79725688E-03
 -0.48839966E-02  0.27172686E-02  0.45062300E-02
 -0.12297074E-02 -0.11850151E-02 -0.45789056E-02
 -0.10273952E-01 -0.79261928E-03  0.62796959E-02
 -0.15194930E-02  0.33420039E-02 -0.41830046E-02
  0.24758739E-03 -0.50271048E-04  0.41509016E-02
  0.70818682E-02  0.14793665E-02 -0.38582066E-02
  0.54679980E-02 -0.14510616E-02  0.73126719E-02
  0.14086124E-02  0.56719000E-02  0.23206121E-02
 -0.19032299E-02  0.55880628E-02  0.51830549E-02
  0.10013060E-01 -0.10106752E-02 -0.36454258E-02
  0.28073012E-02  0.37657982E-02 -0.17226206E-02
  0.21908431E-01 -0.69304179E-02 -0.64160960E-02
 -0.66549303E-03 -0.20691812E-02  0.16123425E-01
  0.34259148E-01  0.13606253E-01 -0.10239105E-01
 -0.11571538E-02 -0.33862093E-02 -0.20923660E-01
  0.16406616E-01 -0.12354968E-01  0.10163526E-01
  0.82963570E-02 -0.90070488E-02 -0.59403047E-02
 -0.18362848E-01 -0.26240535E-01  0.65499416E-02
 -0.85777466E-02 -0.13326906E-01 -0.19495198E-01
 -0.17302634E-01  0.67407064E-02  0.26091602E-02
 -0.12138602E-01  0.68801056E-02 -0.12492394E-01
 -0.59819298E-02 -0.65080899E-02  0.17989568E-01
 -0.27902211E-01 -0.47325104E-02 -0.66886250E-02
  0.26088132E-01 -0.55987126E-02  0.22905009E-01
  0.21320252E-01 -0.37959682E-01  0.72410765E-02
 -0.21194627E-01  0.97685398E-02 -0.17081589E-01
  0.32450483E-03 -0.91133937E-02 -0.47223838E-02
  0.16379408E-01  0.70759679E-02  0.79429481E-02
 -0.21690791E-01 -0.34805320E-02  0.58318858E-02
 -0.97517881E-03  0.13143071E-01 -0.73378016E-02
 -0.69630817E-02 -0.16166634E-01  0.17563392E-01
  0.18660383E-02 -0.15780837E-01 -0.84354687E-02
  0.92418370E-02  0.21936154E-01  0.21524985E-01
 -0.41927425E-02  0.16588634E-01 -0.16472638E-01
 -0.13384467E-01 -0.32081560E-02 -0.31448523E-01
 -0.17995059E-01 -0.30879274E-02  0.21004669E-01
  0.11573301E-01  0.45271505E-02  0.26021989E-02
  0.13827995E-01  0.53063690E-02  0.38265732E-02
  0.11092288E-01  0.90020453E-02 -0.62654879E-01
  0.87810303E-02 -0.75179874E-02  0.10663859E-01
  0.33034572E-01 -0.16385846E-01 -0.37681805E-02
 -0.40615185E-02  0.88888236E-02  0.85348450E-02
  0.17334507E-01 -0.14956792E-02 -0.11145882E-01
 -0.35909233E-02  0.27865835E-01 -0.53868506E-02
  0.31767036E-01 -0.24591180E-01 -0.26032135E-01
  0.34084652E-01  0.34714158E-02 -0.21712793E-02
 -0.15582863E-01 -0.20563465E-03  0.10726047E-01
  0.14822989E-01  0.61557622E-02  0.61471714E-03
  0.56233162E-02 -0.59558023E-02  0.12281404E-01
 -0.85119310E-02 -0.28677894E-01 -0.10818911E-02
 -0.69142722E-02 -0.23252981E-02 -0.27827145E-01
  0.20846622E-01  0.45244996E-02  0.17473324E-01
 -0.65275609E-02  0.35022620E-03  0.34553150E-02
  0.94848866E-02 -0.21980468E-02  0.19564114E-01
 -0.75324818E-02 -0.39781043E-02  0.66733458E-03
 -0.88068946E-02 -0.10293087E-01 -0.37025222E-02
 -0.11404850E-02  0.36685110E-02 -0.72286437E-02
  0.66222250E-02 -0.10250038E-01  0.13786351E-02
 -0.27136001E-02  0.18341919E-01 -0.24771112E-01
 -0.15336037E-01 -0.11703492E-02 -0.28104144E-02
  0.13476370E-01 -0.29198313E-02  0.17179011E-01
  0.10627021E-01  0.38852898E-01 -0.59974830E-03
 -0.12957550E-01 -0.12211397E-01 -0.39825969E-01
 -0.37106012E-02 -0.10640933E-01 -0.89565149E-02
  0.30365172E-01  0.39592753E-01  0.42379527E-02
 -0.20541235E-02  0.59976798E-02  0.11637669E-01
  0.90584787E-02 -0.59896734E-02  0.43056301E-01
  0.12246916E-01  0.72999364E-02 -0.69724340E-02
  0.54453738E-05 -0.78151559E-02  0.33673873E-02
  0.16407671E-01  0.15058467E-01 -0.14052192E-01
  0.19419862E-01  0.15051583E-01  0.19075423E-01
 -0.19974129E-02  0.26076083E-01 -0.27376603E-01
 -0.76240730E-02 -0.16699331E-01  0.56842346E-02
 -0.43239831E-01  0.26443422E-01 -0.12507892E-01
  0.12978301E-01  0.24988901E-01  0.41164927E-01
  0.84364275E-02  0.95226755E-02 -0.29232300E-01
  0.19918418E-01  0.20353087E-01 -0.11185722E-01
  0.23445346E-01 -0.22119913E-01 -0.11113860E-01
  0.33480633E-02 -0.10722820E-01 -0.29411857E-02
 -0.12135700E-01 -0.63864932E-02  0.37389255E-03
 -0.95779358E-02 -0.37788725E-03 -0.54611631E-02
  0.12508670E-01  0.85600167E-02  0.18435280E-01
 -0.33792995E-01  0.14498914E-01  0.46714895E-02
 -0.27829794E-02 -0.16292774E-01  0.44032979E-01
 -0.24113582E-01 -0.21902303E-01  0.70627252E-02
 -0.39668629E-01 -0.13221265E-01 -0.54750841E-03
 
           1
   2.00000000000000     
  0.10000000E+01  0.00000000E+00  0.00000000E+00  0.00000000E+00
  0.46418206E+00  0.51599148E-01  0.73888292E+00
  0.30039368E+00  0.89465875E+00  0.19894612E+00
  0.10882133E+00  0.22149989E-02  0.69880495E+00
  0.22706227E+00  0.36369430E+00  0.90526262E+00
  0.98824086E+00  0.26786038E+00  0.64814186E+00
  0.27000131E+00  0.65282584E+00  0.80392165E+00
  0.56577179E+00  0.58449433E+00  0.18687539E+00
  0.48820322E+00  0.72136604E+00  0.98563633E+00
  0.77594860E+00  0.87643961E+00  0.96553611E+00
  0.44865678E+00  0.11729789E+00  0.60086314E-02
  0.74791474E+00  0.59241796E-01  0.78629094E+00
  0.84935082E+00  0.70007748E+00  0.19220540E+00
  0.45637361E+00  0.25187364E+00  0.55526934E+00
  0.94861841E+00  0.91863568E+00  0.37910996E+00
  0.11786384E+00  0.79085970E+00  0.95990488E+00
  0.74539251E+00  0.55501405E+00  0.86483396E+00
  0.70396807E+00  0.61259710E+00  0.41461896E+00
  0.10222362E+00  0.11422627E+00  0.62730575E-01
  0.55893293E+00  0.71887524E+00  0.66465287E+00
  0.64236252E+00  0.44859315E+00  0.67788055E+00
  0.33692847E+00  0.76802682E+00  0.42873967E+00
  0.37269596E+00  0.36809606E+00  0.27469823E+00
  0.96605543E+00  0.48072382E+00  0.43854218E+00
  0.15241928E+00  0.59169396E+00  0.25803117E+00
  0.91853722E+00  0.23197771E+00  0.29079660E+00
  0.73725039E+00  0.22465620E+00  0.85165278E-01
  0.68807209E+00  0.18806729E-01  0.45083321E+00
  0.20328696E-01  0.58188415E+00  0.96886506E+00
  0.54666713E-01  0.71404202E+00  0.56132642E+00
  0.23800341E+00  0.41286090E+00  0.61109936E+00
  0.58821597E+00  0.98354085E-01  0.77565573E-01
  0.56880030E+00  0.64046363E+00  0.86927431E+00
  0.85728597E+00  0.15603259E+00  0.66446365E+00
  0.98225393E+00  0.76615819E+00  0.28445560E+00
  0.35395106E+00  0.43272684E+00  0.54013800E+00
  0.54876029E-01  0.73083651E+00  0.75271085E-01
  0.27535464E+00  0.97267030E+00  0.81805358E+00
  0.97116456E-01  0.43522431E+00  0.91195692E+00
  0.89753585E+00  0.38382494E+00  0.57228541E+00
  0.65662575E+00  0.58827997E+00  0.55748658E-01
  0.24296529E+00  0.43767626E+00  0.21615026E+00
  0.70206065E+00  0.71485538E+00  0.55207297E+00
  0.70002418E+00  0.48184129E+00  0.51462684E+00
  0.75365515E+00  0.84045998E-01  0.93918623E+00
  0.15128367E+00  0.75894326E+00  0.77499053E+00
  0.71659324E+00  0.75369115E+00  0.27579944E+00
  0.52436370E+00  0.62351816E-01  0.49027369E+00
  0.44761940E+00  0.70904653E+00  0.55095797E+00
  0.38221585E+00  0.96080883E+00  0.61438058E+00
  0.61641560E+00  0.79630191E-01  0.72311630E+00
  0.77580889E+00  0.95558934E+00  0.54710450E+00
  0.77151784E+00  0.72456626E+00  0.93793993E+00
  0.79062524E+00  0.91621484E+00  0.77361154E+00
  0.39288241E+00  0.73598531E+00  0.77851154E+00
  0.44553265E+00  0.32521467E+00  0.40927891E+00
  0.83400810E+00  0.28608738E+00  0.97731213E+00
  0.14277084E+00  0.23293322E+00  0.96916177E+00
  0.17803843E+00  0.82265376E+00  0.46429144E+00
  0.79527798E+00  0.91326737E+00  0.34409801E+00
  0.30590856E+00  0.36961635E+00  0.73466976E+00
  0.76755278E-01  0.45291338E+00  0.32042483E+00
  0.52322058E+00  0.52478246E+00  0.70270420E+00
  0.43086604E+00  0.60843684E+00  0.90993124E-01
  0.10935340E+00  0.15349299E+00  0.64764155E+00
  0.27596073E+00  0.60790994E+00  0.37233801E+00
  0.58500530E+00  0.31093756E+00  0.60211483E+00
  0.69722593E+00  0.39878538E+00  0.81283096E+00
  0.99193423E+00  0.72559915E+00  0.90386811E+00
  0.55732020E+00  0.84963534E+00  0.72853576E+00
  0.77415828E+00  0.31023809E+00  0.20588991E+00
  0.20808156E+00  0.77101788E+00  0.29343380E+00
  0.68009912E+00  0.54460999E+00  0.27593318E+00
  0.95169888E+00  0.84368491E+00  0.51148682E+00
  0.71615072E+00  0.59603316E+00  0.70556304E+00
  0.99694590E+00  0.89335450E+00  0.66827703E+00
  0.41079562E+00  0.88621400E+00  0.86952076E-01
  0.85510780E+00  0.61190864E+00  0.37651336E+00
  0.88277679E+00  0.49418060E+00  0.89807404E+00
  0.37988639E+00  0.16131285E+00  0.64964348E+00
  0.24269099E+00  0.54161842E+00  0.68457664E+00
  0.29252120E+00  0.70854730E+00  0.98550463E+00
  0.95389026E+00  0.11131875E+00  0.38319178E+00
  0.35945806E-01  0.20788090E+00  0.16268576E+00
  0.87765563E+00  0.41725774E+00  0.33953478E+00
  0.85610713E+00  0.58850116E+00  0.74814296E-01
  0.74642431E+00  0.14762699E+00  0.41583168E+00
  0.29471327E+00  0.51931057E+00  0.88440508E+00
  0.61645915E+00  0.82026609E+00  0.97457076E+00
  0.43135644E+00  0.99271076E+00  0.88661507E+00
  0.97898477E+00  0.95483034E+00  0.35600724E-01
  0.22016375E+00  0.88494544E+00  0.54882997E-01
  0.96988639E+00  0.60014237E+00  0.60096164E+00
  0.83218664E-01  0.60247154E+00  0.43020138E+00
  0.39648642E+00  0.86009205E+00  0.28788632E+00
  0.22163247E+00  0.75575294E-01  0.14252146E+00
  0.39014679E+00  0.22457631E+00  0.20568417E+00
  0.80079870E+00  0.83934308E+00  0.11675694E+00
  0.55252104E+00  0.62781634E+00  0.35477386E+00
  0.50221970E+00  0.19537308E+00  0.89088990E+00
  0.33972713E+00  0.26348928E+00  0.98394962E+00
  0.11890557E+00  0.33598117E+00  0.52141217E+00
  0.32376976E-01  0.34039570E+00  0.76654445E+00
  0.87419944E-01  0.21011295E-01  0.91532802E+00
  0.12235477E+00  0.55860300E+00  0.10043241E+00
  0.52508822E+00  0.42887957E+00  0.18064195E+00
 -0.61787255E-03 -0.11852836E-03  0.68558692E-03
 -0.79345928E-03 -0.65013943E-03  0.98862619E-04
 -0.67771155E-03  0.27489919E-03 -0.99955442E-04
 -0.22204715E-03  0.13153272E-02 -0.47298823E-03
  0.14251241E-02  0.48637707E-03  0.71487317E-03
 -0.57572157E-03 -0.10982051E-02 -0.41265315E-03
 -0.40608351E-03 -0.13981344E-02 -0.57206120E-03
  0.60529631E-03 -0.59789834E-03 -0.15195125E-02
 -0.46458547E-03 -0.37306286E-03 -0.24785137E-03
 -0.28977466E-03 -0.12569559E-02  0.37921603E-03
  0.27574428E-03  0.92402091E-03  0.45297089E-03
 -0.12955971E-03  0.11192478E-02  0.63713759E-03
 -0.55854983E-03 -0.16907874E-02 -0.88832064E-03
  0.10073824E-02  0.63808562E-03  0.37850300E-03
  0.85072077E-03  0.11677900E-02  0.23283812E-03
  0.46056227E-04 -0.10340146E-02  0.10142790E-03
 -0.30183910E-03  0.73769692E-04  0.25833880E-03
 -0.10509150E-02  0.25787390E-03 -0.91665790E-03
 -0.92117727E-03 -0.11707305E-02  0.12394446E-03
 -0.83288252E-03  0.45595371E-03  0.81900523E-03
 -0.17939117E-03 -0.17048404E-03 -0.76340364E-03
 -0.17693406E-02 -0.10281038E-03  0.11173559E-02
 -0.24390142E-03  0.57685757E-03 -0.72083378E-03
  0.30944925E-04  0.15838425E-04  0.68677038E-03
  0.12127852E-02  0.23661547E-03 -0.63407234E-03
  0.90699515E-03 -0.24720692E-03  0.12553496E-02
  0.26971500E-03  0.95811974E-03  0.41945617E-03
 -0.29117411E-03  0.97802284E-03  0.84343146E-03
  0.16705874E-02 -0.21631684E-03 -0.59765017E-03
  0.58984051E-03  0.66941972E-03 -0.28150251E-03
  0.36110305E-02 -0.13196689E-02 -0.11836799E-02
 -0.97202865E-04 -0.39624634E-03  0.26308624E-02
  0.57512224E-02  0.23067739E-02 -0.20258153E-02
 -0.79917419E-05 -0.76181551E-03 -0.34871095E-02
  0.17215746E-02 -0.21135478E-02  0.23804673E-02
  0.16491274E-02 -0.12738545E-02 -0.15388244E-02
 -0.25868782E-02 -0.45335620E-02  0.14624484E-02
 -0.10535780E-02 -0.27012764E-02 -0.35007262E-02
 -0.30435115E-02  0.10551710E-02  0.58347216E-03
 -0.19730476E-02  0.10823130E-02 -0.20052017E-02
 -0.11449163E-02 -0.12291020E-02  0.29202569E-02
 -0.43627414E-02 -0.87247875E-03 -0.11115623E-02
  0.44528470E-02 -0.99069800E-03  0.37744275E-02
  0.35911748E-02 -0.62349059E-02  0.11397586E-02
 -0.34327435E-02  0.15805284E-02 -0.28247091E-02
 -0.89631874E-04 -0.12453544E-02 -0.66354767E-03
  0.26364092E-02  0.99055901E-03  0.12816576E-02
 -0.33811376E-02 -0.75203688E-03  0.12284334E-02
 -0.25754775E-03  0.21600260E-02 -0.14622883E-02
 -0.83125916E-03 -0.28373573E-02  0.32182619E-02
  0.18278416E-03 -0.26725488E-02 -0.17778350E-02
  0.13076764E-02  0.36924964E-02  0.39081536E-02
 -0.71489721E-03  0.29262249E-02 -0.30500448E-02
 -0.24470171E-02 -0.55066571E-03 -0.52582164E-02
 -0.30460692E-02 -0.34709811E-03  0.33578231E-02
  0.21986308E-02  0.89346829E-03  0.15239545E-03
  0.23751491E-02  0.89814895E-03  0.67555528E-03
  0.15546055E-02  0.16362697E-02 -0.10805070E-01
  0.12310476E-02 -0.14614833E-02  0.17291829E-02
  0.53757706E-02 -0.21733884E-02 -0.14497656E-02
 -0.61599072E-03  0.14128959E-02  0.15514317E-02
  0.31850734E-02 -0.35205930E-03 -0.18242587E-02
 -0.64656994E-03  0.44024076E-02 -0.83809564E-03
  0.52135604E-02 -0.37103956E-02 -0.43927818E-02
  0.53391678E-02  0.44494273E-03 -0.48527986E-03
 -0.26936614E-02  0.68339159E-04  0.17014188E-02
  0.24024204E-02  0.93566730E-03 -0.18664299E-03
  0.14259258E-02 -0.65243128E-03  0.24957477E-02
 -0.14898949E-02 -0.49961063E-02 -0.11027652E-03
 -0.12079087E-02 -0.11741750E-03 -0.46079460E-02
  0.33582230E-02  0.66018192E-03  0.32302150E-02
 -0.17863137E-02  0.55365081E-03  0.75898545E-03
  0.15518016E-02 -0.54540252E-04  0.33114975E-02
 -0.14439690E-02 -0.63579662E-03 -0.19147438E-03
 -0.18038227E-02 -0.19338031E-02 -0.80708572E-03
 -0.42704687E-03  0.72713113E-03 -0.11583313E-02
  0.58245788E-03 -0.16808817E-02  0.30048290E-03
 -0.58388194E-03  0.29202118E-02 -0.40591268E-02
 -0.24170955E-02 -0.24742713E-03 -0.70792454E-03
  0.25004149E-02 -0.13799697E-02  0.27676830E-02
  0.19586646E-02  0.64762859E-02  0.23114780E-03
 -0.22791082E-02 -0.18925721E-02 -0.66108833E-02
 -0.24368668E-03 -0.19631439E-02 -0.19607232E-02
  0.50059855E-02  0.69705597E-02  0.69748578E-03
 -0.67653604E-03  0.90689062E-03  0.18000034E-02
  0.14146966E-02 -0.11929108E-02  0.73802009E-02
  0.20646009E-02  0.14866569E-02 -0.12905721E-02
  0.86780013E-04 -0.15885575E-02  0.44208265E-03
  0.24644209E-02  0.23591919E-02 -0.24727660E-02
  0.32793769E-02  0.24922460E-02  0.32816843E-02
  0.27042834E-04  0.44933375E-02 -0.44987222E-02
 -0.10240155E-02 -0.25133826E-02  0.80689629E-03
 -0.71678396E-02  0.40882284E-02 -0.23426413E-02
  0.37505177E-03  0.50876510E-02  0.49791030E-02
  0.11276749E-02  0.17770523E-02 -0.51494639E-02
  0.34119414E-02  0.30770741E-02 -0.20240000E-02
  0.37725011E-02 -0.36813880E-02 -0.17923840E-02
  0.10409485E-02 -0.20639814E-02 -0.55325423E-03
 -0.21846777E-02 -0.10386342E-02  0.30002336E-03
 -0.15370665E-02 -0.16248666E-03 -0.88124266E-03
  0.22627131E-02  0.13824398E-02  0.30155409E-02
 -0.57568589E-02  0.24370877E-02  0.76662273E-03
 -0.50720268E-03 -0.26134771E-02  0.76861395E-02
 -0.39437080E-02 -0.36304925E-02  0.12228128E-02
 -0.63570232E-02 -0.20726444E-02 -0.26699684E-03
  0.00000000E+00  0.00000000E+00  0.00000000E+00
  0.00000000E+00  0.00000000E+00  0.00000000E+00
  0.00000000E+00  0.00000000E+00  0.00000000E+00
  0.00000000E+00  0.00000000E+00  0.00000000E+00
  0.00000000E+00  0.00000000E+00  0.00000000E+00
  0.00000000E+00  0.00000000E+00  0.00000000E+00
  0.00000000E+00  0.00000000E+00  0.00000000E+00
  0.00000000E+00  0.00000000E+00  0.00000000E+00
  0.00000000E+00  0.00000000E+00  0.00000000E+00
  0.00000000E+00  0.00000000E+00  0.00000000E+00
  0.00000000E+00  0.00000000E+00  0.00000000E+00
  0.00000000E+00  0.00000000E+00  0.00000000E+00
  0.00000000E+00  0.00000000E+00  0.00000000E+00
  0.00000000E+00  0.00000000E+00  0.00000000E+00
  0.00000000E+00  0.00000000E+00  0.00000000E+00
  0.00000000E+00  0.00000000E+00  0.00000000E+00
  0.00000000E+00  0.00000000E+00  0.00000000E+00
  0.00000000E+00  0.00000000E+00  0.00000000E+00
  0.00000000E+00  0.00000000E+00  0.00000000E+00
  0.00000000E+00  0.00000000E+00  0.00000000E+00
  0.00000000E+00  0.00000000E+00  0.00000000E+00
  0.00000000E+00  0.00000000E+00  0.00000000E+00
  0.00000000E+00  0.00000000E+00  0.00000000E+00
  0.00000000E+00  0.00000000E+00  0.00000000E+00
  0.00000000E+00  0.00000000E+00  0.00000000E+00
  0.00000000E+00  0.00000000E+00  0.00000000E+00
  0.00000000E+00  0.00000000E+00  0.00000000E+00
  0.00000000E+00  0.00000000E+00  0.00000000E+00
  0.00000000E+00  0.00000000E+00  0.00000000E+00
  0.00000000E+00  0.00000000E+00  0.00000000E+00
  0.00000000E+00  0.00000000E+00  0.00000000E+00
  0.00000000E+00  0.00000000E+00  0.00000000E+00
  0.00000000E+00  0.00000000E+00  0.00000000E+00
  0.00000000E+00  0.00000000E+00  0.00000000E+00
  0.00000000E+00  0.00000000E+00  0.00000000E+00
  0.00000000E+00  0.00000000E+00  0.00000000E+00
  0.00000000E+00  0.00000000E+00  0.00000000E+00
  0.00000000E+00  0.00000000E+00  0.00000000E+00
  0.00000000E+00  0.00000000E+00  0.00000000E+00
  0.00000000E+00  0.00000000E+00  0.00000000E+00
  0.00000000E+00  0.00000000E+00  0.00000000E+00
  0.00000000E+00  0.00000000E+00  0.00000000E+00
  0.00000000E+00  0.00000000E+00  0.00000000E+00
  0.00000000E+00  0.00000000E+00  0.00000000E+00
  0.00000000E+00  0.00000000E+00  0.00000000E+00
  0.00000000E+00  0.00000000E+00  0.00000000E+00
  0.00000000E+00  0.00000000E+00  0.00000000E+00
  0.00000000E+00  0.00000000E+00  0.00000000E+00
  0.00000000E+00  0.00000000E+00  0.00000000E+00
  0.00000000E+00  0.00000000E+00  0.00000000E+00
  0.00000000E+00  0.00000000E+00  0.00000000E+00
  0.00000000E+00  0.00000000E+00  0.00000000E+00
  0.00000000E+00  0.00000000E+00  0.00000000E+00
  0.00000000E+00  0.00000000E+00  0.00000000E+00
  0.00000000E+00  0.00000000E+00  0.00000000E+00
  0.00000000E+00  0.00000000E+00  0.00000000E+00
  0.00000000E+00  0.00000000E+00  0.00000000E+00
  0.00000000E+00  0.00000000E+00  0.00000000E+00
  0.00000000E+00  0.00000000E+00  0.00000000E+00
  0.00000000E+00  0.00000000E+00  0.00000000E+00
  0.00000000E+00  0.00000000E+00  0.00000000E+00
  0.00000000E+00  0.00000000E+00  0.00000000E+00
  0.00000000E+00  0.00000000E+00  0.00000000E+00
  0.00000000E+00  0.00000000E+00  0.00000000E+00
  0.00000000E+00  0.00000000E+00  0.00000000E+00
  0.00000000E+00  0.00000000E+00  0.00000000E+00
  0.00000000E+00  0.00000000E+00  0.00000000E+00
  0.00000000E+00  0.00000000E+00  0.00000000E+00
  0.00000000E+00  0.00000000E+00  0.00000000E+00
  0.00000000E+00  0.00000000E+00  0.00000000E+00
  0.00000000E+00  0.00000000E+00  0.00000000E+00
  0.00000000E+00  0.00000000E+00  0.00000000E+00
  0.00000000E+00  0.00000000E+00  0.00000000E+00
  0.00000000E+00  0.00000000E+00  0.00000000E+00
  0.00000000E+00  0.00000000E+00  0.00000000E+00
  0.00000000E+00  0.00000000E+00  0.00000000E+00
  0.00000000E+00  0.00000000E+00  0.00000000E+00
  0.00000000E+00  0.00000000E+00  0.00000000E+00
  0.00000000E+00  0.00000000E+00  0.00000000E+00
  0.00000000E+00  0.00000000E+00  0.00000000E+00
  0.00000000E+00  0.00000000E+00  0.00000000E+00
  0.00000000E+00  0.00000000E+00  0.00000000E+00
  0.00000000E+00  0.00000000E+00  0.00000000E+00
  0.00000000E+00  0.00000000E+00  0.00000000E+00
  0.00000000E+00  0.00000000E+00  0.00000000E+00
  0.00000000E+00  0.00000000E+00  0.00000000E+00
  0.00000000E+00  0.00000000E+00  0.00000000E+00
  0.00000000E+00  0.00000000E+00  0.00000000E+00
  0.00000000E+00  0.00000000E+00  0.00000000E+00
  0.00000000E+00  0.00000000E+00  0.00000000E+00
  0.00000000E+00  0.00000000E+00  0.00000000E+00
  0.00000000E+00  0.00000000E+00  0.00000000E+00
  0.00000000E+00  0.00000000E+00  0.00000000E+00
  0.00000000E+00  0.00000000E+00  0.00000000E+00
  0.00000000E+00  0.00000000E+00  0.00000000E+00
  0.00000000E+00  0.00000000E+00  0.00000000E+00
  0.00000000E+00  0.00000000E+00  0.00000000E+00
  0.00000000E+00  0.00000000E+00  0.00000000E+00
  0.00000000E+00  0.00000000E+00  0.00000000E+00
  0.00000000E+00  0.00000000E+00  0.00000000E+00
  0.00000000E+00  0.00000000E+00  0.00000000E+00
  0.00000000E+00  0.00000000E+00  0.00000000E+00
  0.00000000E+00  0.00000000E+00  0.00000000E+00
  0.00000000E+00  0.00000000E+00  0.00000000E+00
  0.00000000E+00  0.00000000E+00  0.00000000E+00
