Built with Packmol                      
   1.00000000000000     
    11.8284812099999996    0.0000000000000000    0.0000000000000000
     0.0000000000000000   11.8284812099999996    0.0000000000000000
     0.0000000000000000    0.0000000000000000   11.8284812099999996
   Ta   O 
    30    75
Direct
  0.2473569658428202  0.3732738426485997  0.3866282960622843
  0.0274894522462892  0.8594095394306405  0.7882183402140623
  0.2549255885793054  0.3466183653359047  0.6953495725275610
  0.5240727992498051  0.4592260987076213  0.8289454341598504
  0.1144060122407334  0.0931708433200535  0.8624018180854058
  0.2815900894560467  0.5005751323738222  0.0866936485136376
  0.5101297509731801  0.2035364759999362  0.0651941531361546
  0.4590585028848936  0.6901771593832285  0.0855096419859303
  0.8986050874400406  0.4558855391114521  0.3265684271748897
  0.4715133388517106  0.1234838505130396  0.7650277426747190
  0.6727225360791187  0.9117402643722563  0.1189607964819004
  0.8772344878376185  0.7007734342178371  0.6028314050097725
  0.5140737759729350  0.5038725321348938  0.3593746332530433
  0.5524531562540572  0.7819352253016978  0.3618216380795447
  0.2046768283477876  0.8943559397848131  0.0239153897844719
  0.3637095162412898  0.9158089361640108  0.2973860144095989
  0.7707272632065203  0.6742157309516769  0.1828893488439995
  0.0801025970069959  0.1718189254732588  0.2994142461867540
  0.8016232443628563  0.3555194338367858  0.0192455640721013
  0.7452840899395654  0.2029679551289686  0.3512429297830874
  0.0364531078259885  0.8169765681821407  0.2425786468108802
  0.0489108337387168  0.2649321416562017  0.0375169891190678
  0.6354372918912041  0.8906458668552886  0.8801114065283028
  0.0987453960701893  0.5710510487386012  0.8195600972470732
  0.6996884302435000  0.1393257337866443  0.5923363331355072
  0.8138952645898929  0.9255869530900749  0.3886508094144256
  0.9342943152591827  0.3044396865795427  0.6932756524884676
  0.7645553289321975  0.6175269963535911  0.8768038844574144
  0.2950626942765737  0.8592274995236324  0.6931755648303947
  0.2707000216532373  0.6648578789693905  0.4477128624831067
  0.9582194580227600  0.5619752026832104  0.4337381293646906
  0.3880913797143856  0.5610268475573940  0.1828844512169481
  0.8935004150202048  0.3228211781296595  0.9016827300453377
  0.2108209642664443  0.5922915968115363  0.1785897268172136
  0.1899673805208152  0.5174494483005345  0.3558422768018906
  0.3772868113183803  0.3857318616479409  0.7937149130287773
  0.7326282872052470  0.0484738258041316  0.0599929252069411
  0.1633223159703498  0.4795186488149227  0.7031122750242605
  0.2556716101066503  0.1895101762442397  0.7599997577113597
  0.6885291700076857  0.4855832303865799  0.8738301893027967
  0.9444088539971669  0.9410637461501650  0.2951259783240197
  0.8019598560201449  0.8768133693673649  0.8370044079361776
  0.6276715120581686  0.8683792542917661  0.4691603268508030
  0.6138809756644537  0.2239712144250963  0.4915876198611333
  0.7721589062783070  0.6145351805070841  0.7034217293667493
  0.5478425714200763  0.9161193780444441  0.2524671889787325
  0.4584612880327057  0.5546097155138389  0.7296036126637073
  0.3610830905994348  0.9987453614747781  0.7240485980345250
  0.3270620272392896  0.7820497709554194  0.0334227084276026
  0.9467208380020632  0.3994266439314366  0.0902079982904175
  0.8245666078636641  0.2255145764560018  0.0852314484681937
  0.4264725511358889  0.5459719257526033  0.9761009789697528
  0.1610294076144285  0.2788849920680680  0.8207534051973457
  0.5043205598930773  0.4020255787031060  0.4553724895504963
  0.9626084861461629  0.4637065763384393  0.7955451387684419
  0.2330416707780791  0.9259657150795850  0.5846627151136805
  0.3873862958218017  0.5598619110519404  0.4526425316809602
  0.4451726024132562  0.7745489698281001  0.2110720571842843
  0.4551617594909629  0.0979422609378597  0.9478105166833252
  0.2926771125694665  0.4035195320481684  0.5433962102522852
  0.9431387176468833  0.6920360403686453  0.8675306118536831
  0.5868561152959307  0.8324811835922800  0.0333553105653970
  0.5734345925466858  0.0247329145673004  0.8228584231467283
  0.9965320289997707  0.1696028279324168  0.7829833016796621
  0.2224628076877837  0.9746552495843275  0.8946697515881620
  0.8998968472287110  0.7348575992197127  0.2647253996265632
  0.6570333161329122  0.3000472711199706  0.0728436096174961
  0.9405755848340376  0.2600865974897820  0.2327261566482257
  0.4268386959304296  0.2463816780767909  0.1909874508643037
  0.9590323401215572  0.8327884118727248  0.6564043433261025
  0.0073341989548235  0.6583308024032332  0.6670969735088832
  0.7352146759931621  0.8155099957179177  0.2807279379476439
  0.4055320453230517  0.7629280697382628  0.4173701603343163
  0.6343663609314133  0.6369162425382205  0.3899502350408826
  0.5811226596747016  0.3283834004085931  0.7499355115856718
  0.1370104709270578  0.1302349531469131  0.0156044493649998
  0.0292510558236697  0.3545670864709306  0.2822175208946243
  0.8053574269156040  0.2066665110428436  0.6599755158479773
  0.4331696523044546  0.3346956419243489  0.3436742534247177
  0.6363459210562492  0.6603869571018598  0.1187221289140412
  0.1511864375805947  0.7539215475406257  0.7922193791966236
  0.0880875456070922  0.0687259929125757  0.4083654653138440
  0.4493411653731004  0.3435866849688395  0.9946808859284988
  0.8171165405975013  0.3472274039327941  0.4108241072048983
  0.6431707851688817  0.3042259277126429  0.3133644346891518
  0.0161112461649971  0.2915295108844481  0.5746121032753672
  0.0704656147613544  0.9910191831114626  0.7146446865293594
  0.4335204908368045  0.7574985454286562  0.7004298770602039
  0.2075324239804320  0.2770025370983586  0.2699550651174626
  0.6334762432090603  0.7140124972178713  0.8734298019413768
  0.0657676476631879  0.8254096228337694  0.0822154293066923
  0.0335899577264111  0.9532527804240680  0.8994682390741268
  0.2674667602558761  0.6816496172281692  0.5894096278554329
  0.7161252362823467  0.0429981087829289  0.3511100179574679
  0.1848586654166773  0.3251225826037995  0.1059922128715629
  0.7962080622557225  0.0382841877090949  0.5033133798335867
  0.7912767867422051  0.4794483193868163  0.2044809533150915
  0.8356485841135390  0.6920335617117027  0.0418027305573523
  0.2802750556298536  0.9766280605329543  0.1336467609793383
  0.1471310282597686  0.4970365911318409  0.9524191268064899
  0.0368257130711945  0.0828440249905453  0.1781353743394250
  0.3491007252468146  0.0317621785217111  0.3725379872378183
  0.8106360686857977  0.7916711082652126  0.4656938125769787
  0.1605020833165030  0.8111678546755071  0.3224326167848776
  0.5381033232547924  0.1009162970589784  0.6397750730682545
 
 -0.28476188E-02 -0.33511011E-02  0.27806467E-02
 -0.10470578E-02 -0.67013436E-02 -0.17271112E-02
  0.86453668E-03 -0.31353530E-02 -0.21030260E-02
 -0.39728013E-02  0.88030914E-02  0.15826776E-02
 -0.30495719E-02  0.94511499E-02 -0.21837072E-02
  0.27115995E-02  0.42963544E-02  0.36911563E-02
 -0.13243184E-02 -0.67734155E-02 -0.13762172E-02
 -0.64781486E-02  0.24087264E-02  0.62751202E-02
 -0.20193310E-02  0.54810048E-02 -0.25845835E-03
 -0.29508841E-02 -0.35153386E-02  0.33524246E-04
 -0.93616148E-03 -0.32169370E-02 -0.54558841E-02
 -0.98662499E-03  0.82319323E-02 -0.83109902E-02
 -0.16758032E-02 -0.88800721E-03 -0.51299511E-02
 -0.21537679E-02 -0.29122121E-02  0.55426610E-02
  0.53979741E-02 -0.87971131E-03  0.41214942E-02
  0.31428277E-02  0.16314493E-02 -0.17849523E-02
 -0.43816931E-02 -0.64230746E-02  0.31561009E-02
 -0.93866716E-03  0.36740748E-03 -0.81329330E-03
  0.35650184E-02 -0.20121428E-02  0.21600969E-02
  0.99751656E-02 -0.87242305E-02 -0.93410480E-03
 -0.17728719E-03  0.34472217E-02  0.19888620E-02
 -0.83571440E-02  0.61624116E-02  0.38248514E-02
 -0.62863334E-02  0.54054018E-02  0.53248959E-02
  0.13041334E-02  0.80494200E-02 -0.75202734E-03
  0.80391957E-02 -0.29783917E-02 -0.46556177E-03
  0.17305054E-02  0.80571353E-02 -0.46286339E-02
 -0.10283544E-01  0.50379758E-02 -0.10135842E-02
 -0.31858681E-02 -0.51917325E-02 -0.65942920E-02
 -0.12642285E-02 -0.25283535E-02 -0.31671318E-02
  0.50101399E-02 -0.37269567E-03  0.28412024E-02
  0.33763870E-01  0.13362515E-02 -0.16750104E-01
 -0.18189412E-01  0.22719889E-01 -0.99292096E-03
 -0.25551363E-02  0.13220015E-01 -0.10583587E-01
  0.10475351E-01 -0.17049699E-01 -0.85008964E-02
  0.19593061E-01  0.92735927E-02  0.22408444E-01
  0.12564865E-01 -0.27658229E-01 -0.34412898E-02
  0.90383398E-02 -0.11883621E-01  0.37149423E-02
  0.18638899E-01  0.77994916E-02  0.42487986E-02
  0.38457363E-02  0.94723093E-02  0.41794629E-02
  0.10779478E-01  0.27272469E-01 -0.25927518E-01
  0.13446951E-01 -0.18137233E-01 -0.15495337E-01
  0.28807596E-02 -0.21327486E-01  0.15591757E-02
  0.19812215E-01  0.13668877E-01  0.61389426E-02
  0.44045866E-02 -0.79975106E-02 -0.91054809E-02
  0.12279371E-01  0.20626682E-01  0.50300407E-02
  0.83683144E-02 -0.28191536E-02 -0.16112270E-01
 -0.26718161E-01 -0.19752106E-01 -0.20273209E-01
 -0.24113921E-02  0.22369344E-02  0.36344479E-01
  0.14541057E-01  0.20896111E-01 -0.16205785E-01
  0.12738367E-02  0.41343209E-02 -0.10378224E-02
 -0.10742160E-01  0.33053261E-02  0.42288122E-02
 -0.19861653E-01  0.71786741E-02 -0.62582439E-02
 -0.25114262E-01 -0.76759670E-02 -0.23707576E-01
  0.12230189E-01  0.14737717E-01  0.10930131E-01
  0.15738250E-01 -0.16308348E-01  0.10181063E-01
  0.78208727E-02 -0.31960272E-01  0.36688674E-01
  0.13784178E-01 -0.74957904E-03 -0.29346755E-01
  0.78995142E-02  0.13222332E-01  0.24507081E-01
 -0.93159685E-02 -0.22736873E-01 -0.12715009E-01
 -0.11494177E-01  0.10977173E-03  0.97036516E-02
  0.19503086E-01  0.97629924E-02 -0.67480893E-03
 -0.13695825E-01 -0.19536384E-01 -0.12571243E-01
  0.19334740E-01 -0.85424524E-02 -0.14949539E-01
  0.35730398E-02  0.43893482E-02  0.15260119E-01
 -0.14810800E-01  0.17832532E-01  0.10828421E-01
  0.10391867E-01 -0.41830389E-01  0.12722046E-01
  0.15104959E-01 -0.90327221E-02 -0.11558523E-01
  0.55555329E-02 -0.18319864E-01 -0.57733201E-02
 -0.27589071E-01 -0.42493904E-02  0.33312388E-01
 -0.58395252E-02 -0.82114631E-02  0.22136784E-01
  0.83366976E-02 -0.61714000E-03 -0.39812992E-02
  0.27940188E-01 -0.11627032E-01  0.95166085E-03
 -0.15820764E-01 -0.32157232E-01  0.13503825E-02
  0.22717113E-01 -0.70971089E-02 -0.11252830E-01
 -0.72375675E-02 -0.76386445E-02  0.18538375E-01
  0.11254423E-01 -0.22461842E-01 -0.22774682E-01
  0.11051126E-01 -0.19968574E-01  0.15760764E-01
  0.22623062E-02  0.18854541E-01 -0.25753243E-02
 -0.13560027E-01  0.17479862E-01  0.93308838E-03
  0.14919083E-01 -0.22008685E-02  0.16695112E-02
  0.12248808E-02  0.24945526E-02  0.20556504E-01
  0.13176471E-01 -0.21228175E-01  0.17747016E-01
 -0.23073947E-01  0.10224331E-01  0.16505688E-01
  0.20709023E-01  0.27921961E-02 -0.13603192E-01
 -0.59711503E-02 -0.76053760E-02 -0.12654292E-01
  0.34767061E-01 -0.88538485E-03 -0.61411305E-03
  0.28240732E-02  0.37122553E-01  0.24556909E-01
 -0.31205932E-02 -0.13778972E-01 -0.29762309E-04
  0.18189956E-01 -0.74729992E-02 -0.44814792E-02
  0.14706373E-01  0.26581205E-02 -0.14047196E-01
  0.11006620E-01 -0.19325487E-01  0.10879501E-01
 -0.17927552E-01  0.28876886E-01  0.21395923E-01
  0.43177861E-02 -0.88256784E-02 -0.23907087E-01
 -0.51181998E-02 -0.42467697E-02 -0.41615705E-01
 -0.48244080E-03  0.19563942E-01  0.45675626E-02
  0.91485766E-02  0.31981363E-01  0.12572602E-01
  0.92281089E-02 -0.58690049E-02 -0.48481103E-03
 -0.10603066E-01 -0.10240630E-01 -0.10048503E-01
  0.69976479E-03  0.54298135E-03 -0.44657927E-01
 -0.79364274E-02  0.28362169E-02  0.32424131E-01
 -0.19003683E-01 -0.21665336E-01  0.57163069E-02
 -0.63707238E-02 -0.50714338E-01  0.19722387E-02
  0.24933404E-01  0.14587564E-02 -0.13314119E-01
 -0.50688910E-02  0.92857475E-02  0.12501882E-01
 -0.51084876E-02 -0.12782744E-01  0.25475981E-01
 
           1
   2.00000000000000     
  0.10000000E+01  0.00000000E+00  0.00000000E+00  0.00000000E+00
  0.24687548E+00  0.37270723E+00  0.38709846E+00
  0.27312412E-01  0.85827645E+00  0.78792631E+00
  0.25507177E+00  0.34608823E+00  0.69499399E+00
  0.52340106E+00  0.46071456E+00  0.82921304E+00
  0.11389038E+00  0.94768876E-01  0.86203259E+00
  0.28204858E+00  0.50130157E+00  0.87317762E-01
  0.50990583E+00  0.20239120E+00  0.64961458E-01
  0.45796316E+00  0.69058444E+00  0.86570661E-01
  0.89826365E+00  0.45681229E+00  0.32652473E+00
  0.47101439E+00  0.12288947E+00  0.76503341E+00
  0.67256425E+00  0.91119633E+00  0.11803830E+00
  0.87706767E+00  0.70216532E+00  0.60142615E+00
  0.51379043E+00  0.50372238E+00  0.35850724E+00
  0.55208899E+00  0.78144282E+00  0.36275881E+00
  0.20558954E+00  0.89420720E+00  0.24612266E-01
  0.36424092E+00  0.91608479E+00  0.29708421E+00
  0.76998639E+00  0.67312970E+00  0.18342299E+00
  0.79943884E-01  0.17188105E+00  0.29927673E+00
  0.80222603E+00  0.35517921E+00  0.19610801E-01
  0.74697073E+00  0.20149283E+00  0.35108499E+00
  0.36423132E-01  0.81755944E+00  0.24291493E+00
  0.47497779E-01  0.26597410E+00  0.38163708E-01
  0.63437438E+00  0.89155983E+00  0.88101176E+00
  0.98965903E-01  0.57241207E+00  0.81943294E+00
  0.70104772E+00  0.13882214E+00  0.59225761E+00
  0.81418786E+00  0.92694928E+00  0.38786818E+00
  0.93255554E+00  0.30529152E+00  0.69310427E+00
  0.76401665E+00  0.61664916E+00  0.87568890E+00
  0.29484893E+00  0.85880000E+00  0.69264006E+00
  0.27154715E+00  0.66479486E+00  0.44819326E+00
  0.96392837E+00  0.56220114E+00  0.43090596E+00
  0.38501585E+00  0.56486840E+00  0.18271656E+00
  0.89306838E+00  0.32505646E+00  0.89989322E+00
  0.21259217E+00  0.58940878E+00  0.17715237E+00
  0.19328024E+00  0.51901746E+00  0.35963117E+00
  0.37941132E+00  0.38105531E+00  0.79313305E+00
  0.73415652E+00  0.46464503E-01  0.60621060E-01
  0.16647384E+00  0.48083741E+00  0.70383068E+00
  0.25632186E+00  0.19111179E+00  0.76070644E+00
  0.69035180E+00  0.49019455E+00  0.86944628E+00
  0.94668251E+00  0.93799704E+00  0.29250597E+00
  0.80244694E+00  0.87320725E+00  0.83726804E+00
  0.63102143E+00  0.87069043E+00  0.47019832E+00
  0.61462572E+00  0.22261897E+00  0.49004803E+00
  0.77423514E+00  0.61802281E+00  0.70427223E+00
  0.54925751E+00  0.91564271E+00  0.24974287E+00
  0.45394369E+00  0.55126996E+00  0.72617575E+00
  0.36067536E+00  0.99912359E+00  0.73019385E+00
  0.32952068E+00  0.78558296E+00  0.30682579E-01
  0.94693622E+00  0.40012569E+00  0.90032520E-01
  0.82275029E+00  0.22607345E+00  0.85946470E-01
  0.42311428E+00  0.54718572E+00  0.97504281E+00
  0.15678300E+00  0.27758711E+00  0.81674485E+00
  0.50638848E+00  0.40451748E+00  0.45722059E+00
  0.96526956E+00  0.46094911E+00  0.79726659E+00
  0.23436405E+00  0.92056176E+00  0.59086616E+00
  0.38971697E+00  0.55973517E+00  0.44768048E+00
  0.44650828E+00  0.77678465E+00  0.21521580E+00
  0.45358658E+00  0.94097833E-01  0.94566062E+00
  0.29073364E+00  0.40353809E+00  0.54503694E+00
  0.94643637E+00  0.69368680E+00  0.86741651E+00
  0.58454038E+00  0.82917791E+00  0.31229722E-01
  0.57670378E+00  0.23288528E-01  0.82033070E+00
  0.99713617E+00  0.17034499E+00  0.78556353E+00
  0.21995855E+00  0.97767044E+00  0.89650066E+00
  0.90165394E+00  0.72778477E+00  0.26687649E+00
  0.65958731E+00  0.29851999E+00  0.70889255E-01
  0.94151493E+00  0.25698901E+00  0.23174998E+00
  0.42217384E+00  0.24566318E+00  0.19662002E+00
  0.95804497E+00  0.83139999E+00  0.66014731E+00
  0.87437963E-02  0.65822645E+00  0.66642380E+00
  0.73993890E+00  0.81354406E+00  0.28088885E+00
  0.40285702E+00  0.75749082E+00  0.41759849E+00
  0.63820745E+00  0.63571624E+00  0.38804757E+00
  0.57989891E+00  0.32709183E+00  0.75307004E+00
  0.13891341E+00  0.12643703E+00  0.11753628E-01
  0.31119618E-01  0.35119073E+00  0.28488240E+00
  0.80573995E+00  0.20985450E+00  0.65954007E+00
  0.43087688E+00  0.33765120E+00  0.34383202E+00
  0.63886849E+00  0.66001483E+00  0.11900442E+00
  0.15139354E+00  0.75434334E+00  0.79569514E+00
  0.90315468E-01  0.65136661E-01  0.41136619E+00
  0.44543974E+00  0.34531545E+00  0.99747172E+00
  0.82061809E+00  0.34769952E+00  0.40852403E+00
  0.64216116E+00  0.30293998E+00  0.31122480E+00
  0.21989780E-01  0.29137981E+00  0.57450827E+00
  0.70943119E-01  0.99729599E+00  0.71879685E+00
  0.43299285E+00  0.75516875E+00  0.70042484E+00
  0.21060804E+00  0.27573898E+00  0.26919732E+00
  0.63596285E+00  0.71446194E+00  0.87105465E+00
  0.67628685E-01  0.82214200E+00  0.84054972E-01
  0.30558706E-01  0.95813538E+00  0.90308593E+00
  0.26819683E+00  0.68015734E+00  0.58536734E+00
  0.71525983E+00  0.42280050E-01  0.34407349E+00
  0.18477709E+00  0.32843052E+00  0.10676451E+00
  0.79775493E+00  0.43691706E-01  0.50543920E+00
  0.79283711E+00  0.47845597E+00  0.20439898E+00
  0.83385578E+00  0.69030204E+00  0.40103695E-01
  0.28039337E+00  0.97671987E+00  0.12609585E+00
  0.14578911E+00  0.49751615E+00  0.95790151E+00
  0.33612505E-01  0.79180776E-01  0.17910191E+00
  0.34802354E+00  0.23187225E-01  0.37287146E+00
  0.81485189E+00  0.79191776E+00  0.46344262E+00
  0.15964502E+00  0.81273792E+00  0.32454648E+00
  0.53723956E+00  0.98754947E-01  0.64408264E+00
 -0.51337075E-03 -0.58703446E-03  0.46876359E-03
 -0.16403984E-03 -0.10853052E-02 -0.27645899E-03
  0.11798711E-03 -0.54362662E-03 -0.37945678E-03
 -0.64173009E-03  0.14973181E-02  0.27696445E-03
 -0.51741217E-03  0.15835852E-02 -0.31576811E-03
  0.48209858E-03  0.76306607E-03  0.65706361E-03
 -0.21408569E-03 -0.12042537E-02 -0.22679671E-03
 -0.10952058E-02  0.42877993E-03  0.10856224E-02
 -0.35598767E-03  0.93600543E-03 -0.54276320E-04
 -0.42666693E-03 -0.60666112E-03 -0.48593856E-04
 -0.19991540E-03 -0.59785254E-03 -0.98952535E-03
 -0.17492615E-03  0.13988699E-02 -0.14135223E-02
 -0.27389447E-03 -0.17689366E-03 -0.84762067E-03
 -0.41411214E-03 -0.51543177E-03  0.91830367E-03
  0.89194118E-03 -0.13699579E-03  0.67404366E-03
  0.53857916E-03  0.31114423E-03 -0.26697151E-03
 -0.77154789E-03 -0.10728335E-02  0.52804786E-03
 -0.14848707E-03  0.70834627E-04 -0.12427802E-03
  0.60476990E-03 -0.35357804E-03  0.34833063E-03
  0.17024527E-02 -0.15077746E-02 -0.15975727E-03
  0.12094589E-04  0.57263932E-03  0.36268112E-03
 -0.14093293E-02  0.10009927E-02  0.62170811E-03
 -0.11194982E-02  0.93863578E-03  0.92307887E-03
  0.26469328E-03  0.13616040E-02 -0.11703613E-03
  0.14237905E-02 -0.45586344E-03 -0.36791169E-04
  0.29640177E-03  0.13840131E-02 -0.78643331E-03
 -0.17492277E-02  0.85256866E-03 -0.23644921E-03
 -0.56631835E-03 -0.93502231E-03 -0.10924764E-02
 -0.23997204E-03 -0.38422914E-03 -0.57856183E-03
  0.84716426E-03 -0.60520002E-04  0.51831763E-03
  0.59419481E-02  0.32447206E-03 -0.27050038E-02
 -0.37338992E-02  0.37370754E-02 -0.41650511E-03
 -0.47702160E-03  0.24378344E-02 -0.15894136E-02
  0.20955451E-02 -0.29739327E-02 -0.12470972E-02
  0.32580212E-02  0.16329731E-02  0.36161043E-02
  0.25363390E-02 -0.44599373E-02 -0.33806117E-03
  0.17632010E-02 -0.16935831E-02  0.56770218E-03
  0.31362794E-02  0.12529711E-02  0.61198263E-03
  0.38939776E-03  0.18856561E-02  0.89874467E-03
  0.17631776E-02  0.47663706E-02 -0.45632314E-02
  0.22495880E-02 -0.30187351E-02 -0.26500519E-02
  0.98955595E-03 -0.36961661E-02  0.16067169E-03
  0.35353131E-02  0.23579826E-02  0.11676622E-02
  0.39016921E-03 -0.12358489E-02 -0.15414922E-02
  0.19421124E-02  0.33178929E-02  0.83674108E-03
  0.14407042E-02 -0.72220462E-03 -0.26700128E-02
 -0.47695965E-02 -0.32590299E-02 -0.35317132E-02
 -0.71997707E-03  0.71339350E-04  0.59578003E-02
  0.25065886E-02  0.35741169E-02 -0.26301490E-02
  0.73954049E-04  0.69548341E-03 -0.87357532E-04
 -0.21392573E-02  0.91391427E-03  0.56240829E-03
 -0.32627349E-02  0.97110379E-03 -0.11927918E-02
 -0.39760702E-02 -0.14779157E-02 -0.42876406E-02
  0.17941630E-02  0.27490834E-02  0.12378019E-02
  0.25117208E-02 -0.27991968E-02  0.19208418E-02
  0.14824424E-02 -0.54255229E-02  0.67632030E-02
  0.21795380E-02 -0.15214804E-03 -0.47713421E-02
  0.14259956E-02  0.24289568E-02  0.41204067E-02
 -0.15485453E-02 -0.40436202E-02 -0.22262963E-02
 -0.18231388E-02  0.31586071E-03  0.16285286E-02
  0.32397841E-02  0.18198336E-02 -0.36707491E-04
 -0.17203347E-02 -0.30386114E-02 -0.16644054E-02
  0.28875288E-02 -0.11490621E-02 -0.25334133E-02
  0.80306733E-03  0.55564299E-03  0.26821797E-02
 -0.28800109E-02  0.30591629E-02  0.19800671E-02
  0.13208141E-02 -0.68737761E-02  0.21627553E-02
  0.29297271E-02 -0.14736372E-02 -0.18566978E-02
  0.10549202E-02 -0.29767292E-02 -0.10815035E-02
 -0.47681252E-02 -0.47088969E-03  0.58064116E-02
 -0.42508837E-03 -0.15155501E-02  0.42666423E-02
  0.13721331E-02  0.30999609E-03 -0.51754886E-03
  0.50008314E-02 -0.20916296E-02  0.46174795E-03
 -0.23931209E-02 -0.55728444E-02  0.20545996E-03
  0.40343286E-02 -0.10001783E-02 -0.17515137E-02
 -0.11597379E-02 -0.11895405E-02  0.30789981E-02
  0.19321901E-02 -0.37884157E-02 -0.37489416E-02
  0.19821140E-02 -0.35639401E-02  0.23875934E-02
 -0.12642115E-03  0.26850616E-02 -0.80535074E-03
 -0.19168587E-02  0.28534886E-02  0.32329112E-03
  0.31335924E-02 -0.25359341E-03  0.33480142E-03
 -0.23736549E-04  0.47579767E-03  0.34085284E-02
  0.22332015E-02 -0.36993150E-02  0.29831755E-02
 -0.40049433E-02  0.19584996E-02  0.27730477E-02
  0.33352566E-02  0.44410085E-03 -0.23434165E-02
 -0.10277155E-02 -0.11784600E-02 -0.19100727E-02
  0.57201163E-02 -0.18726488E-03  0.58577312E-04
  0.25207759E-03  0.62103481E-02  0.41739365E-02
 -0.33635300E-03 -0.26757755E-02  0.20601894E-04
  0.29481849E-02 -0.10389830E-02 -0.10727899E-02
  0.23607085E-02  0.48969402E-03 -0.23826920E-02
  0.17992411E-02 -0.32684988E-02  0.16901608E-02
 -0.28064814E-02  0.44482777E-02  0.27181455E-02
  0.88004847E-03 -0.15649568E-02 -0.43511699E-02
 -0.58019691E-03 -0.94634015E-03 -0.64558141E-02
  0.13854401E-03  0.31531597E-02  0.11565980E-02
  0.14236430E-02  0.52320295E-02  0.16060918E-02
  0.15845034E-02 -0.13084473E-02 -0.17793392E-03
 -0.16831474E-02 -0.15996636E-02 -0.16651264E-02
  0.12800382E-03  0.20300606E-03 -0.76887409E-02
 -0.14783829E-02  0.29519966E-03  0.55287960E-02
 -0.33285913E-02 -0.37742018E-02  0.93540638E-03
 -0.10775363E-02 -0.90249360E-02  0.24478786E-04
  0.39474380E-02  0.46650708E-03 -0.26002483E-02
 -0.12870000E-02  0.16723766E-02  0.18548610E-02
 -0.12430256E-02 -0.21096369E-02  0.48412336E-02
  0.00000000E+00  0.00000000E+00  0.00000000E+00
  0.00000000E+00  0.00000000E+00  0.00000000E+00
  0.00000000E+00  0.00000000E+00  0.00000000E+00
  0.00000000E+00  0.00000000E+00  0.00000000E+00
  0.00000000E+00  0.00000000E+00  0.00000000E+00
  0.00000000E+00  0.00000000E+00  0.00000000E+00
  0.00000000E+00  0.00000000E+00  0.00000000E+00
  0.00000000E+00  0.00000000E+00  0.00000000E+00
  0.00000000E+00  0.00000000E+00  0.00000000E+00
  0.00000000E+00  0.00000000E+00  0.00000000E+00
  0.00000000E+00  0.00000000E+00  0.00000000E+00
  0.00000000E+00  0.00000000E+00  0.00000000E+00
  0.00000000E+00  0.00000000E+00  0.00000000E+00
  0.00000000E+00  0.00000000E+00  0.00000000E+00
  0.00000000E+00  0.00000000E+00  0.00000000E+00
  0.00000000E+00  0.00000000E+00  0.00000000E+00
  0.00000000E+00  0.00000000E+00  0.00000000E+00
  0.00000000E+00  0.00000000E+00  0.00000000E+00
  0.00000000E+00  0.00000000E+00  0.00000000E+00
  0.00000000E+00  0.00000000E+00  0.00000000E+00
  0.00000000E+00  0.00000000E+00  0.00000000E+00
  0.00000000E+00  0.00000000E+00  0.00000000E+00
  0.00000000E+00  0.00000000E+00  0.00000000E+00
  0.00000000E+00  0.00000000E+00  0.00000000E+00
  0.00000000E+00  0.00000000E+00  0.00000000E+00
  0.00000000E+00  0.00000000E+00  0.00000000E+00
  0.00000000E+00  0.00000000E+00  0.00000000E+00
  0.00000000E+00  0.00000000E+00  0.00000000E+00
  0.00000000E+00  0.00000000E+00  0.00000000E+00
  0.00000000E+00  0.00000000E+00  0.00000000E+00
  0.00000000E+00  0.00000000E+00  0.00000000E+00
  0.00000000E+00  0.00000000E+00  0.00000000E+00
  0.00000000E+00  0.00000000E+00  0.00000000E+00
  0.00000000E+00  0.00000000E+00  0.00000000E+00
  0.00000000E+00  0.00000000E+00  0.00000000E+00
  0.00000000E+00  0.00000000E+00  0.00000000E+00
  0.00000000E+00  0.00000000E+00  0.00000000E+00
  0.00000000E+00  0.00000000E+00  0.00000000E+00
  0.00000000E+00  0.00000000E+00  0.00000000E+00
  0.00000000E+00  0.00000000E+00  0.00000000E+00
  0.00000000E+00  0.00000000E+00  0.00000000E+00
  0.00000000E+00  0.00000000E+00  0.00000000E+00
  0.00000000E+00  0.00000000E+00  0.00000000E+00
  0.00000000E+00  0.00000000E+00  0.00000000E+00
  0.00000000E+00  0.00000000E+00  0.00000000E+00
  0.00000000E+00  0.00000000E+00  0.00000000E+00
  0.00000000E+00  0.00000000E+00  0.00000000E+00
  0.00000000E+00  0.00000000E+00  0.00000000E+00
  0.00000000E+00  0.00000000E+00  0.00000000E+00
  0.00000000E+00  0.00000000E+00  0.00000000E+00
  0.00000000E+00  0.00000000E+00  0.00000000E+00
  0.00000000E+00  0.00000000E+00  0.00000000E+00
  0.00000000E+00  0.00000000E+00  0.00000000E+00
  0.00000000E+00  0.00000000E+00  0.00000000E+00
  0.00000000E+00  0.00000000E+00  0.00000000E+00
  0.00000000E+00  0.00000000E+00  0.00000000E+00
  0.00000000E+00  0.00000000E+00  0.00000000E+00
  0.00000000E+00  0.00000000E+00  0.00000000E+00
  0.00000000E+00  0.00000000E+00  0.00000000E+00
  0.00000000E+00  0.00000000E+00  0.00000000E+00
  0.00000000E+00  0.00000000E+00  0.00000000E+00
  0.00000000E+00  0.00000000E+00  0.00000000E+00
  0.00000000E+00  0.00000000E+00  0.00000000E+00
  0.00000000E+00  0.00000000E+00  0.00000000E+00
  0.00000000E+00  0.00000000E+00  0.00000000E+00
  0.00000000E+00  0.00000000E+00  0.00000000E+00
  0.00000000E+00  0.00000000E+00  0.00000000E+00
  0.00000000E+00  0.00000000E+00  0.00000000E+00
  0.00000000E+00  0.00000000E+00  0.00000000E+00
  0.00000000E+00  0.00000000E+00  0.00000000E+00
  0.00000000E+00  0.00000000E+00  0.00000000E+00
  0.00000000E+00  0.00000000E+00  0.00000000E+00
  0.00000000E+00  0.00000000E+00  0.00000000E+00
  0.00000000E+00  0.00000000E+00  0.00000000E+00
  0.00000000E+00  0.00000000E+00  0.00000000E+00
  0.00000000E+00  0.00000000E+00  0.00000000E+00
  0.00000000E+00  0.00000000E+00  0.00000000E+00
  0.00000000E+00  0.00000000E+00  0.00000000E+00
  0.00000000E+00  0.00000000E+00  0.00000000E+00
  0.00000000E+00  0.00000000E+00  0.00000000E+00
  0.00000000E+00  0.00000000E+00  0.00000000E+00
  0.00000000E+00  0.00000000E+00  0.00000000E+00
  0.00000000E+00  0.00000000E+00  0.00000000E+00
  0.00000000E+00  0.00000000E+00  0.00000000E+00
  0.00000000E+00  0.00000000E+00  0.00000000E+00
  0.00000000E+00  0.00000000E+00  0.00000000E+00
  0.00000000E+00  0.00000000E+00  0.00000000E+00
  0.00000000E+00  0.00000000E+00  0.00000000E+00
  0.00000000E+00  0.00000000E+00  0.00000000E+00
  0.00000000E+00  0.00000000E+00  0.00000000E+00
  0.00000000E+00  0.00000000E+00  0.00000000E+00
  0.00000000E+00  0.00000000E+00  0.00000000E+00
  0.00000000E+00  0.00000000E+00  0.00000000E+00
  0.00000000E+00  0.00000000E+00  0.00000000E+00
  0.00000000E+00  0.00000000E+00  0.00000000E+00
  0.00000000E+00  0.00000000E+00  0.00000000E+00
  0.00000000E+00  0.00000000E+00  0.00000000E+00
  0.00000000E+00  0.00000000E+00  0.00000000E+00
  0.00000000E+00  0.00000000E+00  0.00000000E+00
  0.00000000E+00  0.00000000E+00  0.00000000E+00
  0.00000000E+00  0.00000000E+00  0.00000000E+00
  0.00000000E+00  0.00000000E+00  0.00000000E+00
  0.00000000E+00  0.00000000E+00  0.00000000E+00
  0.00000000E+00  0.00000000E+00  0.00000000E+00
  0.00000000E+00  0.00000000E+00  0.00000000E+00
