step 4000
           1
    10.592175    0.000000    0.000000
     0.000000   10.592175    0.000000
     0.000000    0.000000   10.592175
   Hf   O 
  34  68
Direct
   0.52612498  0.19981202  0.03232248
   0.77900774  0.58652467  0.53194890
   0.15970719  0.65359042  0.66746508
   0.18765202  0.68355448  0.24385412
   0.40639799  0.56788400  0.05806477
   0.69316266  0.05867208  0.23086078
   0.65013021  0.93172776  0.57687365
   0.79633822  0.78527266  0.81217347
   0.15534844  0.18694214  0.47977634
   0.29377371  0.01213859  0.21157547
   0.20982084  0.89629907  0.94765785
   0.92312134  0.31878382  0.16495617
   0.38719682  0.12048011  0.77269486
   0.37964200  0.52239926  0.48570030
   0.08062375  0.55259213  0.99473658
   0.01237291  0.96618722  0.70390547
   0.99058892  0.93236182  0.39188091
   0.51422533  0.66813839  0.75512823
   0.81636364  0.23511887  0.46587738
   0.73159960  0.52584222  0.97865180
   0.01905404  0.47845369  0.39973363
   0.24459374  0.41927056  0.76656525
   0.49699466  0.17507312  0.45382109
   0.56650457  0.36175474  0.69842549
   0.32854593  0.89244124  0.55035078
   0.51979495  0.86417605  0.03300784
   0.54667774  0.74699884  0.31496882
   0.63671282  0.44482826  0.24877180
   0.74743521  0.13315200  0.85539176
   0.24682262  0.31887344  0.20145166
   0.90384379  0.36903789  0.76477792
   0.10898627  0.21041325  0.90053675
   0.94247670  0.00236835  0.06269347
   0.84129567  0.73902829  0.18742501
   0.55304848  0.20000548  0.83765818
   0.07468608  0.28835301  0.30270107
   0.18999592  0.35546254  0.57019076
   0.16147693  0.07957231  0.08031478
   0.18892941  0.75760070  0.81335255
   0.49536669  0.35591149  0.50706770
   0.96039929  0.75892610  0.72714740
   0.36243980  0.98515426  0.02554656
   0.00725158  0.69469038  0.31213562
   0.65087571  0.69722127  0.94445571
   0.10799098  0.89642080  0.55304038
   0.41992790  0.72774080  0.93002447
   0.79070846  0.94382555  0.91393942
   0.39536948  0.79733940  0.17930794
   0.51865984  0.10063119  0.63518835
   0.33891395  0.07865009  0.58543830
   0.50432807  0.48650632  0.82954368
   0.16876643  0.73133717  0.05754525
   0.56314182  0.96255989  0.87063408
   0.42078699  0.82039870  0.68562352
   0.42141655  0.37446440  0.05779119
   0.89658710  0.65618249  0.00051248
   0.86701173  0.92350190  0.22293460
   0.96721213  0.10929625  0.51393727
   0.80378771  0.42763309  0.13113461
   0.65253145  0.79206939  0.17313736
   0.30638160  0.37488351  0.37127929
   0.51285827  0.02393373  0.23043231
   0.41579348  0.28990614  0.70901740
   0.58583607  0.55345654  0.07538882
   0.68075841  0.78171518  0.68812179
   0.00281049  0.53729290  0.18527579
   0.73851875  0.13170479  0.06469826
   0.10676742  0.32795221  0.05970376
   0.56363503  0.26460340  0.22570588
   0.38687324  0.17450393  0.12005952
   0.17768524  0.57894196  0.44096510
   0.95328265  0.35617795  0.51817934
   0.33306991  0.58550834  0.66949845
   0.93556558  0.09946204  0.79675958
   0.10459730  0.54765637  0.81338056
   0.54634604  0.55251575  0.63052847
   0.08889654  0.04286574  0.30095278
   0.76807451  0.33344032  0.30450792
   0.71031404  0.34032789  0.87469755
   0.88582366  0.12510552  0.27355031
   0.28202095  0.51007281  0.94994687
   0.08698087  0.30659724  0.74197673
   0.23404712  0.51696840  0.17293997
   0.38855498  0.70680901  0.43476245
   0.23842391  0.85994904  0.31376107
   0.77924068  0.48663970  0.68034828
   0.29014654  0.28080461  0.89896765
   0.97380626  0.39906931  0.94288655
   0.47357319  0.93021954  0.43868537
   0.95539038  0.18001980  0.02448776
   0.68331498  0.43926571  0.45317768
   0.76022164  0.62005704  0.25774642
   0.78332352  0.99837138  0.69084917
   0.48742790  0.56873638  0.27989772
   0.97401050  0.55329990  0.60231877
   0.18979118  0.05351111  0.80197499
   0.68117085  0.11009487  0.40914846
   0.01662153  0.92639346  0.91734519
   0.66310160  0.69624476  0.44971281
   0.79038220  0.24753521  0.66751755
   0.78288411  0.90183868  0.46968703
   0.29218787  0.15792693  0.35221435
