O  Ru                                   
   1.00000000000000     
     4.4761898977813326   -0.0000000000000000    0.0000000000000003
     0.0000000000000007    4.4761898977813326    0.0000000000000003
    -0.0000000000000000   -0.0000000000000000    3.1100192393607511
   O    Ru
     4     2
Direct
  0.1937616107927956  0.8062383892072046  0.5000000000000000
  0.8062383892072046  0.1937616107927956  0.5000000000000000
  0.6937616107927954  0.6937616107927954  0.0000000000000000
  0.3062383892072043  0.3062383892072043 -0.0000000000000000
  0.5000000000000000  0.5000000000000000  0.5000000000000000
 -0.0000000000000000 -0.0000000000000000 -0.0000000000000000
 
  0.00000000E+00  0.00000000E+00  0.00000000E+00
  0.00000000E+00  0.00000000E+00  0.00000000E+00
  0.00000000E+00  0.00000000E+00  0.00000000E+00
  0.00000000E+00  0.00000000E+00  0.00000000E+00
  0.00000000E+00  0.00000000E+00  0.00000000E+00
  0.00000000E+00  0.00000000E+00  0.00000000E+00
