ALGO = Normal
EDIFF = 1e-08
EDIFFG = -0.001
ENCUT = 400.0
IBRION = 2
ISIF = 3
ISMEAR = 0
LCHARG = False
LORBIT = 11
LREAL = False
LWAVE = False
NCORE = 4
NSW = 300
PREC = Accurate
SIGMA = 0.01
