Ru4 O8
1.0
   4.8422528199999988    0.0000000000000000    0.0000000000000003
   0.0000000000000008    4.8422528199999988    0.0000000000000003
   0.0000000000000000    0.0000000000000000    4.8422528199999988
Ru O
4 8
direct
   0.0000000000000000    0.5000000000000000    0.5000000000000000 Ru
   0.5000000000000000    0.5000000000000000    0.0000000000000000 Ru
   0.5000000000000000    0.0000000000000000    0.5000000000000000 Ru
   0.0000000000000000    0.0000000000000000    0.0000000000000000 Ru
   0.3509256000000001    0.1490743999999999    0.8509256000000001 O
   0.1490743999999999    0.8509256000000001    0.3509256000000001 O
   0.8509256000000001    0.3509256000000001    0.1490743999999999 O
   0.6490743999999999    0.6490743999999999    0.6490743999999999 O
   0.3509256000000001    0.3509256000000001    0.3509256000000001 O
   0.1490743999999999    0.6490743999999999    0.8509256000000001 O
   0.8509256000000001    0.1490743999999999    0.6490743999999999 O
   0.6490743999999999    0.8509256000000001    0.1490743999999999 O
