Ru2 O4
1.0
   4.4825003150000002    0.0000000000000000    0.0000000000000003
   0.0000000000000007    4.4825003150000002    0.0000000000000003
   0.0000000000000000    0.0000000000000000    3.1113414000000001
Ru O
2 4
direct
   0.5000000000000000    0.5000000000000000    0.5000000000000000 Ru
   0.0000000000000000    0.0000000000000000    0.0000000000000000 Ru
   0.1945578400000000    0.8054421600000000    0.5000000000000000 O
   0.8054421600000000    0.1945578400000000    0.5000000000000000 O
   0.6945578400000000    0.6945578400000000    0.0000000000000000 O
   0.3054421600000001    0.3054421600000000    0.0000000000000000 O
