Ru4 O8
1.0
   4.8571720000000003    0.0000000000000000    0.0000000000000003
   0.0000000000000008    4.8571720000000003    0.0000000000000003
   0.0000000000000000    0.0000000000000000    4.8571720000000003
Ru O
4 8
direct
   0.0000000000000000    0.0000000000000000    0.0000000000000000 Ru
   0.0000000000000000    0.5000000000000000    0.5000000000000000 Ru
   0.5000000000000000    0.0000000000000000    0.5000000000000000 Ru
   0.5000000000000000    0.5000000000000000    0.0000000000000000 Ru
   0.2500000000000000    0.2500000000000000    0.7500000000000000 O
   0.2500000000000000    0.7500000000000000    0.7500000000000000 O
   0.2500000000000000    0.7500000000000000    0.2500000000000000 O
   0.2500000000000000    0.2500000000000000    0.2500000000000000 O
   0.7500000000000000    0.2500000000000000    0.2500000000000000 O
   0.7500000000000000    0.7500000000000000    0.2500000000000000 O
   0.7500000000000000    0.7500000000000000    0.7500000000000000 O
   0.7500000000000000    0.2500000000000000    0.7500000000000000 O
