O  Ti                                   
   1.00000000000000     
     4.5909667199596171   -0.0000000000000000    0.0000000000000003
     0.0000000000000007    4.5909667199596171    0.0000000000000003
    -0.0000000000000000   -0.0000000000000000    2.9520677591795752
   O    Ti
     4     2
Direct
  0.6960668672193171  0.6960668672193171  0.5000000000000000
  0.1960668672193170  0.8039331327806829 -0.0000000000000000
  0.8039331327806829  0.1960668672193170  0.0000000000000000
  0.3039331327806831  0.3039331327806831  0.5000000000000000
  0.5000000000000000  0.5000000000000000  0.0000000000000000
 -0.0000000000000000 -0.0000000000000000  0.5000000000000000
 
  0.00000000E+00  0.00000000E+00  0.00000000E+00
  0.00000000E+00  0.00000000E+00  0.00000000E+00
  0.00000000E+00  0.00000000E+00  0.00000000E+00
  0.00000000E+00  0.00000000E+00  0.00000000E+00
  0.00000000E+00  0.00000000E+00  0.00000000E+00
  0.00000000E+00  0.00000000E+00  0.00000000E+00
