O  Ti
 1.0000000000000000
     4.5998373238807098    0.0000000000000000    0.0000000000000003
     0.0000000000000007    4.5998373238807098    0.0000000000000003
     0.0000000000000000    0.0000000000000000    2.9592135600011331
 O   Ti 
   4   2
Cartesian
  3.2000087806912516  3.2000087806912512  1.4796067800005670
  0.9000901187508965  3.6997472051298135  0.0000000000000003
  3.6997472051298135  0.9000901187508960  0.0000000000000003
  1.3998285431894586  1.3998285431894584  1.4796067800005668
  2.2999186619403553  2.2999186619403549  0.0000000000000003
  0.0000000000000000  0.0000000000000000  1.4796067800005666
