k-point density of [20, 20, 1]/[a, b, c]
0
Gamma
4.0 7.0 1.0
0.0 0.0 0.0
