ALGO = Normal
AMIN = 0.01
BMIX = 3
EDIFF = 1e-06
EMAX = 20
EMIN = -20
ENCUT = 400.0
IBRION = -1
ICHARG = 11
ISMEAR = -5
LCHARG = False
LORBIT = 11
LREAL = Auto
LWAVE = False
NCORE = 4
NEDOS = 2001
NSW = 0
PREC = Accurate
SIGMA = 0.01
