k-point density of [40, 40, 1]/[a, b, c]
0
Gamma
7 13 1
0.0 0.0 0.0
