AEXX = 0.25
ALGO = All
EDIFF = 1e-08
ENCUT = 400.0
HFSCREEN = 0.2
IBRION = -1
ISIF = 3
ISMEAR = 0
LCHARG = True
LHFCALC = True
LORBIT = 11
LREAL = False
LWAVE = False
NCORE = 4
NSW = 0
PREC = Accurate
SIGMA = 0.01
TIME = 0.5
