ALGO = Normal
EDIFF = 1e-08
ENCUT = 400.0
IBRION = 8
ISMEAR = 0
LCHARG = False
LEPSILON = True
LREAL = False
LWAVE = False
PREC = Accurate
SIGMA = 0.01
