step 10000
           1
    10.592175    0.000000    0.000000
     0.000000   10.592175    0.000000
     0.000000    0.000000   10.592175
   Hf   O 
  34  68
Direct
   0.38413446  0.31671527  0.94105149
   0.72398808  0.31061278  0.45031793
   0.52349724  0.55002114  0.47061773
   0.12874783  0.57775849  0.48295462
   0.83701927  0.63300012  0.94370185
   0.48281920  0.20346424  0.27557066
   0.55840792  0.11390950  0.60406121
   0.14939514  0.55204512  0.95230250
   0.85809635  0.12768733  0.69155590
   0.33869230  0.79234984  0.21564384
   0.50903831  0.64362524  0.88587038
   0.85419146  0.08198386  0.16643628
   0.35659238  0.78821043  0.66770582
   0.03579627  0.23029468  0.43604928
   0.07863093  0.21495464  0.94793650
   0.01374826  0.73138636  0.72188748
   0.88924555  0.89548232  0.42284085
   0.69271451  0.81685946  0.64472903
   0.62673000  0.44437589  0.77428407
   0.71725692  0.27479861  0.97466960
   0.94161289  0.41443835  0.18154765
   0.26684538  0.44699253  0.68312369
   0.18080962  0.05997796  0.65190250
   0.95220749  0.40705644  0.70663370
   0.20056969  0.09353252  0.19057130
   0.56048760  0.96770726  0.95821025
   0.40652208  0.94352109  0.42850123
   0.61215478  0.52711988  0.16240140
   0.94623977  0.95566328  0.90206072
   0.25292620  0.47033950  0.19987250
   0.81921897  0.59359146  0.40238095
   0.27251088  0.96422347  0.91678306
   0.03541348  0.81563349  0.17699381
   0.66383786  0.78896684  0.20240026
   0.92194876  0.13482540  0.87461837
   0.42685452  0.32712669  0.75492976
   0.23351157  0.89111246  0.33512331
   0.53614107  0.09276761  0.42607515
   0.27047989  0.16680943  0.01630548
   0.63919344  0.64702560  0.36436802
   0.14882018  0.68558921  0.13072883
   0.94900793  0.56858804  0.56333969
   0.85267267  0.21938901  0.32088267
   0.96804782  0.73310572  0.33580653
   0.06075520  0.54905250  0.77513002
   0.39618679  0.55396896  0.77561867
   0.00131180  0.74490113  0.90243965
   0.79216849  0.67688567  0.15994391
   0.78871711  0.50068157  0.79446105
   0.98006083  0.56373348  0.07540176
   0.95048797  0.35722878  0.88308861
   0.17138889  0.09509260  0.84667861
   0.88332107  0.25833271  0.05162360
   0.49877574  0.21015216  0.97805961
   0.47281434  0.69606945  0.10336492
   0.19722913  0.34107988  0.85644097
   0.42593630  0.72596083  0.48976707
   0.90272215  0.86818576  0.05570956
   0.33780853  0.06687231  0.31592373
   0.53203120  0.33246791  0.16194074
   0.73404087  0.78382284  0.46440230
   0.03606247  0.07257693  0.07107839
   0.86396280  0.28375441  0.57717719
   0.19849041  0.67134369  0.62953100
   0.65210375  0.91961730  0.09574154
   0.42576084  0.98485280  0.83579179
   0.17516416  0.18225858  0.51015033
   0.45850280  0.53156220  0.31220858
   0.02387307  0.21176207  0.70634048
   0.67995570  0.24286295  0.72436640
   0.21695847  0.92886488  0.11092036
   0.14830116  0.87916376  0.74328056
   0.61679553  0.59131918  0.65802842
   0.83622309  0.70881032  0.77019282
   0.30577545  0.30571290  0.25999949
   0.52718219  0.91669237  0.61211204
   0.77169072  0.43268610  0.09575945
   0.54553158  0.78642420  0.78766836
   0.60636051  0.46621382  0.95202665
   0.73700827  0.03726850  0.58819821
   0.14187213  0.39555334  0.05768064
   0.41806767  0.90179661  0.05441016
   0.06949394  0.26344792  0.26972220
   0.23412902  0.58055780  0.34174888
   0.96673541  0.03950909  0.58110706
   0.77675106  0.95445226  0.84932728
   0.48828410  0.85887473  0.30619558
   0.67742897  0.71675123  0.97361887
   0.36731567  0.12533080  0.63570445
   0.71531953  0.47564348  0.32258685
   0.04407451  0.98416678  0.29511238
   0.10959629  0.40654751  0.55586581
   0.30030098  0.76653036  0.88102515
   0.76565275  0.94969636  0.27945003
   0.72799847  0.46061788  0.56249746
   0.36300575  0.51758054  0.56197693
   0.94588104  0.48248644  0.35437236
   0.33004280  0.51607119  0.03032583
   0.92714707  0.79253234  0.56797309
   0.53586695  0.30840329  0.45123292
   0.66321320  0.14216422  0.08056208
   0.32279730  0.94770834  0.59257188
