step 9000
           1
    10.592175    0.000000    0.000000
     0.000000   10.592175    0.000000
     0.000000    0.000000   10.592175
   Hf   O 
  34  68
Direct
   0.28239755  0.39589088  0.85398087
   0.78458589  0.91325830  0.69153156
   0.41065854  0.53020073  0.47590193
   0.14269883  0.68416134  0.30131301
   0.54925630  0.63594979  0.92842961
   0.49352625  0.11599627  0.18793448
   0.52429170  0.11039469  0.66468425
   0.00352618  0.56053137  0.00587541
   0.97680922  0.17565785  0.69362403
   0.43618550  0.75271255  0.22396269
   0.29252561  0.72389870  0.96224785
   0.78644536  0.09079976  0.27880667
   0.33159670  0.80463886  0.60637017
   0.05845677  0.31309699  0.44223159
   0.06134305  0.21107711  0.01131981
   0.07998686  0.84134606  0.80652828
   0.99742010  0.92573693  0.43715450
   0.62026206  0.67751677  0.58249202
   0.70455668  0.34734160  0.55570956
   0.71671750  0.30167240  0.91349126
   0.90073367  0.29570179  0.22791309
   0.16095296  0.56104746  0.67402684
   0.31888677  0.24183669  0.56435451
   0.86205558  0.54577234  0.78221593
   0.27671990  0.03074103  0.34615059
   0.58667485  0.95283238  0.95587872
   0.62502203  0.88028903  0.40952865
   0.61562377  0.44152173  0.22486987
   0.85442903  0.94296889  0.99798847
   0.28380431  0.41076311  0.19304865
   0.88672792  0.60051426  0.45280615
   0.31927797  0.12178618  0.88017793
   0.16030716  0.91545540  0.11385453
   0.81362378  0.71067066  0.13630434
   0.12499024  0.26664547  0.83042809
   0.68027388  0.21405135  0.73537905
   0.31182157  0.05790975  0.14203142
   0.52933773  0.87853213  0.62211536
   0.28978253  0.78116149  0.14533527
   0.67842145  0.30642678  0.37973217
   0.11290612  0.73601784  0.00343200
   0.01585947  0.68965939  0.71424665
   0.91100177  0.29583531  0.54826331
   0.87571458  0.43424105  0.36338011
   0.27873422  0.40369789  0.63893491
   0.12804715  0.51032277  0.86124591
   0.89357561  0.67185911  0.93193143
   0.96738743  0.68290909  0.26376894
   0.68618833  0.49336376  0.92353176
   0.73514454  0.64068004  0.31970618
   0.94731282  0.37863918  0.95325909
   0.15586160  0.07181427  0.99552952
   0.50131780  0.30539117  0.18808080
   0.25681651  0.29179524  0.03722003
   0.58431670  0.65168453  0.14176915
   0.24328057  0.89416536  0.94668554
   0.42323764  0.86588450  0.35293668
   0.69820818  0.81785497  0.00536129
   0.59901332  0.07273770  0.35328953
   0.08408725  0.28474411  0.21475430
   0.51334317  0.66731154  0.41170039
   0.73842972  0.99119901  0.84320798
   0.03563339  0.46741152  0.58802297
   0.24095363  0.88439085  0.44221723
   0.48229462  0.92689041  0.12232286
   0.39216645  0.22286457  0.75751373
   0.39004931  0.19180544  0.36240379
   0.46723160  0.45820990  0.31636005
   0.13773401  0.23453985  0.62793308
   0.72938768  0.99765537  0.52815036
   0.00588154  0.89142852  0.06670758
   0.14537440  0.00611430  0.76577194
   0.59326262  0.49782918  0.49776885
   0.04072866  0.73529756  0.44796184
   0.11280193  0.52114711  0.15466787
   0.92156424  0.86768440  0.80865138
   0.72727395  0.31622759  0.13410391
   0.42206522  0.61980333  0.64131966
   0.39510077  0.59601458  0.85285223
   0.83275105  0.37165584  0.73488167
   0.34240212  0.48942092  0.02835595
   0.45529353  0.96569075  0.82629189
   0.89967613  0.14797997  0.88785016
   0.11036449  0.93297377  0.29119365
   0.92616884  0.11348241  0.15840225
   0.65170583  0.74046948  0.76470936
   0.82388400  0.76590233  0.48531571
   0.46540292  0.78059438  0.95458149
   0.51471505  0.29623647  0.58562720
   0.93808162  0.12360666  0.36665842
   0.16107139  0.12224077  0.44961687
   0.15096477  0.45882175  0.39363973
   0.23259152  0.75199416  0.74241086
   0.83286444  0.92275775  0.32753278
   0.76752962  0.53428881  0.63489431
   0.24937213  0.67724150  0.47627090
   0.83705465  0.50123482  0.13638823
   0.31030928  0.57959965  0.28315352
   0.92855097  0.02090468  0.60187313
   0.69161927  0.06744501  0.10628662
   0.55637193  0.16791066  0.98933051
   0.37112231  0.03400048  0.58683644
