ALGO = Normal
EDIFF = 1e-08
ENCUT = 400.0
IBRION = -1
ISMEAR = 0
LCHARG = True
LORBIT = 11
LREAL = False
LWAVE = False
NCORE = 4
NSW = 0
PREC = Accurate
SIGMA = 0.01
